25 0:33 1:0.35 2:35 6:1 12:1185732 13:1 20:22 21:1 22:11 23:2020
56 0:19 1:0.41 2:19 7:1 12:1185732 13:1 18:1 20:33 21:6 22:2 23:2021
160 0:49 1:0.61 2:41 5:1 12:1185732 13:1 18:1 20:24 21:17 22:7 23:2021
200 0:48 1:0.3 2:35 7:1 12:1185732 13:1 18:1 20:40 21:12 22:6 23:2021
68 0:48 1:0.51 2:58 5:1 12:1185732 13:1 18:1 20:40 21:13 22:5 23:2021
41 0:38 1:0.46 2:29 3:1 12:1185732 13:1 18:1 20:26 21:15 22:7 23:2021
41 0:38 1:0.46 2:29 3:1 12:1185732 13:1 18:1 20:26 21:21 22:7 23:2021
112 0:13 1:0.54 2:55 4:1 12:1185732 13:1 18:1 20:12 21:30 22:7 23:2021
250 0:49 1:0.35 2:44.99999999999999 12:1185732 13:1 20:24 21:19 22:5 23:2021
420 0:38 1:0.4 2:45 4:1 12:1185732 13:1 19:1 20:26 21:14 22:6 23:2021
137 0:17 1:0.42 2:32 4:1 12:1185732 13:1 18:1 20:14 21:6 22:6 23:2021
25 0:38 1:0.4 2:35 6:1 12:1185732 13:1 19:1 20:26 21:17 22:6 23:2021
203 0:49 1:0.5 2:38 4:1 12:1185732 13:1 18:1 20:24 21:18 22:8 23:2021
675 0:18 1:0.4 2:30 4:1 12:1185732 13:1 20:21 21:18 22:2 23:2021
250 0:38 1:0.35 2:40 3:1 12:1185732 13:1 19:1 20:26 21:27 22:7 23:2021
125 0:50 1:0.3 2:35 6:1 12:1185732 13:1 18:1 20:15 21:12 22:1 23:2021
81 0:50 1:0.5 2:64 12:1197831 13:1 18:1 20:15 21:12 22:12 23:2021
42 0:13 1:0.48 2:36 7:1 12:1185732 13:1 18:1 20:12 21:20 22:6 23:2021
500 0:33 1:0.35 2:35 4:1 12:1185732 13:1 20:22 21:23 22:10 23:2020
25 0:38 1:0.35 2:45 12:1185732 13:1 19:1 20:26 21:12 22:6 23:2021
325 0:18 1:0.35 2:30 3:1 12:1185732 13:1 20:21 21:18 22:2 23:2021
175 0:17 1:0.3 2:25.00000000000001 7:1 12:1185732 13:1 20:14 21:7 22:9 23:2021
81 0:33 1:0.5600000000000001 2:53 5:1 12:1185732 13:1 18:1 20:22 21:21 22:11 23:2020
84 0:38 1:0.54 2:37 4:1 12:1185732 13:1 18:1 20:26 21:20 22:7 23:2021
500 0:19 1:0.3 2:30 4:1 12:1185732 13:1 20:33 21:6 22:2 23:2021
250 0:33 1:0.3 2:40.00000000000001 3:1 12:1185732 13:1 19:1 20:22 21:5 22:12 23:2020
225 0:13 1:0.5 2:50 5:1 12:1185732 13:1 19:1 20:12 21:17 22:6 23:2021
275 0:49 1:0.35 2:25 12:1185732 13:1 20:24 21:19 22:9 23:2021
27 0:38 1:0.45 2:48 12:1185732 13:1 18:1 20:26 21:24 22:7 23:2021
50 0:38 1:0.35 2:30 7:1 12:1185732 13:1 19:1 20:26 21:16 22:7 23:2021
525 0:49 1:0.4 2:35 4:1 12:1185732 13:1 20:24 21:18 22:10 23:2021
54 0:13 1:0.45 2:53 3:1 12:1185732 13:1 18:1 20:12 21:25 22:6 23:2021
125 0:33 1:0.3 2:35 12:1185732 13:1 19:1 20:22 21:8 22:12 23:2020
101 0:49 1:0.53 2:29 6:1 12:1185732 13:1 18:1 20:24 21:17 22:7 23:2021
54 0:17 1:0.41 2:33 7:1 12:1185732 13:1 18:1 20:14 21:7 22:5 23:2021
50 0:33 1:0.35 2:40 6:1 12:1185732 13:1 20:22 21:13 22:11 23:2020
325 0:49 1:0.35 2:35.00000000000001 3:1 12:1185732 13:1 20:24 21:19 22:5 23:2021
200 0:33 1:0.3 2:40 3:1 12:1185732 13:1 19:1 20:22 21:17 22:12 23:2020
42 0:19 1:0.63 2:38 12:1185732 13:1 18:1 20:33 21:6 22:1 23:2021
445 0:33 1:0.35 2:50 4:1 12:1185732 13:1 20:22 21:10 22:11 23:2020
45 0:48 1:0.4 2:29 7:1 12:1185732 13:1 18:1 20:40 21:12 22:4 23:2021
450 0:50 1:0.35 2:25.00000000000001 4:1 12:1197831 13:1 18:1 20:15 21:13 22:11 23:2021
6 0:38 1:0.48 2:42 12:1185732 13:1 18:1 20:26 21:12 22:6 23:2021
51 0:17 1:0.6 2:48 12:1185732 13:1 18:1 20:14 21:6 22:8 23:2021
250 0:48 1:0.4 2:60 5:1 12:1185732 13:1 18:1 20:40 21:13 22:5 23:2021
175 0:38 1:0.35 2:45 12:1185732 13:1 19:1 20:26 21:30 22:6 23:2021
75 0:17 1:0.3 2:25.00000000000001 6:1 12:1185732 13:1 20:14 21:6 22:2 23:2021
275 0:50 1:0.4 2:40 5:1 12:1185732 13:1 18:1 20:15 21:12 22:1 23:2021
225 0:13 1:0.35 2:50 12:1185732 13:1 19:1 20:12 21:10 22:7 23:2021
20 0:13 1:0.5 2:44 6:1 12:1185732 13:1 18:1 20:12 21:21 22:6 23:2021
58 0:48 1:0.43 2:38 6:1 12:1185732 13:1 18:1 20:40 21:12 22:8 23:2021
165 0:38 1:0.51 2:43 4:1 12:1185732 13:1 18:1 20:26 21:26 22:6 23:2021
98 0:18 1:0.49 2:39 12:1185732 13:1 18:1 20:21 21:18 22:1 23:2021
200 0:38 1:0.35 2:40 7:1 12:1185732 13:1 19:1 20:26 21:4 22:7 23:2021
550 0:17 1:0.3 2:50 4:1 12:1185732 13:1 20:14 21:5 22:7 23:2021
350 0:49 1:0.5 2:35 5:1 12:1185732 13:1 20:24 21:17 22:3 23:2021
125 0:48 1:0.35 2:50 12:1185732 13:1 18:1 20:40 21:11 22:3 23:2021
350 0:13 1:0.5 2:55.00000000000001 5:1 12:1185732 13:1 19:1 20:12 21:5 22:7 23:2021
500 0:49 1:0.35 2:35.00000000000001 3:1 12:1185732 13:1 20:24 21:17 22:7 23:2021
91 0:38 1:0.63 2:49 5:1 12:1185732 13:1 18:1 20:26 21:1 22:7 23:2021
25 0:38 1:0.35 2:40 12:1185732 13:1 19:1 20:26 21:18 22:7 23:2021
100 0:13 1:0.4 2:40 6:1 12:1185732 13:1 19:1 20:12 21:9 22:6 23:2021
7 0:38 1:0.53 2:29 6:1 12:1185732 13:1 18:1 20:26 21:17 22:7 23:2021
128 0:49 1:0.65 2:36 5:1 12:1185732 13:1 18:1 20:24 21:18 22:8 23:2021
120 0:49 1:0.63 2:28 5:1 12:1185732 13:1 18:1 20:24 21:18 22:2 23:2021
0 0:38 1:0.4 2:35 6:1 12:1185732 13:1 19:1 20:26 21:5 22:6 23:2021
450 0:38 1:0.4 2:49.99999999999999 4:1 12:1185732 13:1 19:1 20:26 21:26 22:7 23:2021
600 0:50 1:0.35 2:70 4:1 12:1197831 13:1 18:1 20:15 21:12 22:12 23:2021
100 0:38 1:0.35 2:40 3:1 12:1185732 13:1 19:1 20:26 21:3 22:6 23:2021
150 0:38 1:0.35 2:45 12:1185732 13:1 19:1 20:26 21:24 22:6 23:2021
88 0:49 1:0.47 2:34 3:1 12:1185732 13:1 18:1 20:24 21:19 22:5 23:2021
53 0:13 1:0.53 2:46 6:1 12:1185732 13:1 18:1 20:12 21:2 22:8 23:2021
145 0:38 1:0.53 2:41 4:1 12:1185732 13:1 18:1 20:26 21:2 22:7 23:2021
135 0:48 1:0.46 2:41 4:1 12:1185732 13:1 18:1 20:40 21:12 22:6 23:2021
200 0:33 1:0.45 2:40 5:1 12:1185732 13:1 19:1 20:22 21:9 22:12 23:2020
175 0:13 1:0.35 2:54.99999999999999 12:1185732 13:1 19:1 20:12 21:10 22:6 23:2021
69 0:13 1:0.6 2:41 5:1 12:1185732 13:1 18:1 20:12 21:5 22:6 23:2021
38 0:33 1:0.4 2:36 7:1 12:1185732 13:1 18:1 20:22 21:18 22:12 23:2020
150 0:33 1:0.3 2:45.00000000000001 3:1 12:1185732 13:1 20:22 21:11 22:11 23:2020
138 0:48 1:0.45 2:42 4:1 12:1185732 13:1 18:1 20:40 21:13 22:9 23:2021
175 0:17 1:0.3 2:25.00000000000001 6:1 12:1185732 13:1 20:14 21:6 22:6 23:2021
45 0:17 1:0.61 2:34 12:1185732 13:1 18:1 20:14 21:7 22:9 23:2021
150 0:33 1:0.3 2:45 12:1185732 13:1 19:1 20:22 21:2 22:12 23:2020
113 0:48 1:0.46 2:38 4:1 12:1185732 13:1 18:1 20:40 21:12 22:4 23:2021
105 0:49 1:0.6 2:45 5:1 12:1185732 13:1 18:1 20:24 21:19 22:5 23:2021
300 0:48 1:0.3 2:45.00000000000001 3:1 12:1185732 13:1 18:1 20:40 21:11 22:7 23:2021
100 0:48 1:0.35 2:60 12:1185732 13:1 18:1 20:40 21:12 22:4 23:2021
175 0:50 1:0.3 2:40 3:1 12:1185732 13:1 18:1 20:15 21:12 22:2 23:2021
124 0:17 1:0.45 2:20 4:1 12:1185732 13:1 18:1 20:14 21:6 22:4 23:2021
31 0:17 1:0.42 2:34 6:1 12:1185732 13:1 18:1 20:14 21:6 22:10 23:2021
50 0:13 1:0.54 2:39 6:1 12:1185732 13:1 18:1 20:12 21:9 22:7 23:2021
123 0:18 1:0.47 2:29 3:1 12:1185732 13:1 18:1 20:21 21:18 22:1 23:2021
28 0:33 1:0.42 2:38 3:1 12:1185732 13:1 18:1 20:22 21:5 22:11 23:2020
175 0:48 1:0.35 2:49.99999999999999 12:1185732 13:1 18:1 20:40 21:12 22:2 23:2021
75 0:13 1:0.49 2:46 7:1 12:1185732 13:1 18:1 20:12 21:7 22:8 23:2021
275 0:49 1:0.35 2:20.00000000000001 7:1 12:1185732 13:1 20:24 21:18 22:4 23:2021
200 0:38 1:0.5 2:54.99999999999999 5:1 12:1185732 13:1 19:1 20:26 21:25 22:7 23:2021
175 0:13 1:0.35 2:45 3:1 12:1185732 13:1 19:1 20:12 21:7 22:6 23:2021
75 0:33 1:0.3 2:54.99999999999999 12:1185732 13:1 20:22 21:14 22:11 23:2020
77 0:17 1:0.47 2:27 3:1 12:1185732 13:1 18:1 20:14 21:7 22:9 23:2021
72 0:50 1:0.55 2:37 5:1 12:1185732 13:1 18:1 20:15 21:12 22:1 23:2021
500 0:49 1:0.4 2:35 4:1 12:1185732 13:1 20:24 21:18 22:11 23:2021
495 0:48 1:0.35 2:40 4:1 12:1185732 13:1 18:1 20:40 21:11 22:3 23:2021
300 0:33 1:0.3 2:45.00000000000001 3:1 12:1185732 13:1 19:1 20:22 21:23 22:11 23:2020
39 0:38 1:0.48 2:45 12:1185732 13:1 18:1 20:26 21:30 22:7 23:2021
200 0:13 1:0.35 2:60 12:1185732 13:1 19:1 20:12 21:9 22:8 23:2021
500 0:19 1:0.35 2:60 4:1 12:1185732 13:1 20:33 21:8 22:12 23:2021
125 0:17 1:0.5 2:60 12:1185732 13:1 20:14 21:6 22:4 23:2021
158 0:50 1:0.5 2:37 4:1 12:1185732 13:1 18:1 20:15 21:12 22:2 23:2021
143 0:18 1:0.52 2:55 12:1185732 13:1 18:1 20:21 21:15 22:12 23:2021
33 0:13 1:0.47 2:56 12:1185732 13:1 18:1 20:12 21:28 22:7 23:2021
225 0:48 1:0.3 2:30 7:1 12:1185732 13:1 18:1 20:40 21:11 22:3 23:2021
75 0:38 1:0.35 2:35 3:1 12:1185732 13:1 19:1 20:26 21:9 22:6 23:2021
600 0:18 1:0.3 2:50 7:1 12:1185732 13:1 20:21 21:15 22:12 23:2021
68 0:33 1:0.4 2:37 7:1 12:1185732 13:1 18:1 20:22 21:30 22:11 23:2020
77 0:17 1:0.48 2:28 3:1 12:1185732 13:1 18:1 20:14 21:6 22:6 23:2021
125 0:38 1:0.35 2:44.99999999999999 12:1185732 13:1 19:1 20:26 21:31 22:5 23:2021
195 0:19 1:0.3 2:40 7:1 12:1185732 13:1 20:33 21:9 22:11 23:2021
225 0:38 1:0.5 2:35 5:1 12:1185732 13:1 19:1 20:26 21:26 22:5 23:2021
225 0:49 1:0.4 2:25 6:1 12:1185732 13:1 20:24 21:18 22:10 23:2021
175 0:13 1:0.35 2:50 12:1185732 13:1 19:1 20:12 21:22 22:7 23:2021
350 0:49 1:0.35 2:25.00000000000001 7:1 12:1185732 13:1 20:24 21:17 22:3 23:2021
77 0:18 1:0.52 2:24 6:1 12:1185732 13:1 18:1 20:21 21:18 22:1 23:2021
500 0:13 1:0.4 2:50 4:1 12:1185732 13:1 19:1 20:12 21:18 22:7 23:2021
63 0:38 1:0.45 2:34 7:1 12:1185732 13:1 18:1 20:26 21:28 22:6 23:2021
52 0:48 1:0.46 2:49 12:1185732 13:1 18:1 20:40 21:11 22:7 23:2021
83 0:50 1:0.44 2:27 7:1 12:1185732 13:1 18:1 20:15 21:12 22:1 23:2021
150 0:17 1:0.5 2:30 12:1185732 13:1 20:14 21:5 22:3 23:2021
83 0:49 1:0.53 2:14 6:1 12:1185732 13:1 18:1 20:24 21:19 22:9 23:2021
195 0:13 1:0.35 2:50 7:1 12:1185732 13:1 19:1 20:12 21:1 22:8 23:2021
200 0:19 1:0.3 2:50 6:1 12:1185732 13:1 20:33 21:8 22:12 23:2021
47 0:33 1:0.49 2:33 6:1 12:1185732 13:1 18:1 20:22 21:1 22:12 23:2020
250 0:13 1:0.5 2:64.99999999999999 5:1 12:1185732 13:1 19:1 20:12 21:4 22:8 23:2021
175 0:33 1:0.35 2:40 6:1 12:1185732 13:1 19:1 20:22 21:25 22:11 23:2020
550 0:48 1:0.35 2:50 4:1 12:1185732 13:1 18:1 20:40 21:11 22:7 23:2021
47 0:38 1:0.5 2:23 7:1 12:1185732 13:1 18:1 20:26 21:29 22:5 23:2021
7 0:33 1:0.5 2:32 6:1 12:1185732 13:1 18:1 20:22 21:7 22:11 23:2020
13 0:38 1:0.47 2:45 12:1185732 13:1 18:1 20:26 21:6 22:6 23:2021
144 0:13 1:0.55 2:47 4:1 12:1185732 13:1 18:1 20:12 21:12 22:6 23:2021
350 0:33 1:0.35 2:50 4:1 12:1185732 13:1 19:1 20:22 21:16 22:12 23:2020
81 0:48 1:0.45 2:44 3:1 12:1185732 13:1 18:1 20:40 21:11 22:7 23:2021
375 0:49 1:0.4 2:30 6:1 12:1185732 13:1 20:24 21:17 22:7 23:2021
100 0:17 1:0.3 2:15 6:1 12:1185732 13:1 20:14 21:5 22:3 23:2021
200 0:49 1:0.4 2:30 6:1 12:1185732 13:1 20:24 21:17 22:3 23:2021
88 0:49 1:0.45 2:38 12:1185732 13:1 18:1 20:24 21:18 22:2 23:2021
275 0:50 1:0.3 2:30 7:1 12:1185732 13:1 18:1 20:15 21:12 22:1 23:2021
275 0:13 1:0.5 2:45 5:1 12:1185732 13:1 19:1 20:12 21:5 22:6 23:2021
88 0:49 1:0.64 2:38 5:1 12:1185732 13:1 18:1 20:24 21:18 22:10 23:2021
350 0:38 1:0.5 2:50 5:1 12:1185732 13:1 19:1 20:26 21:1 22:7 23:2021
80 0:50 1:0.4 2:37 3:1 12:1185732 13:1 18:1 20:15 21:12 22:1 23:2021
100 0:38 1:0.35 2:40 12:1185732 13:1 19:1 20:26 21:6 22:7 23:2021
470 0:17 1:0.3 2:20 4:1 12:1185732 13:1 20:14 21:5 22:3 23:2021
73 0:13 1:0.64 2:53 5:1 12:1185732 13:1 18:1 20:12 21:23 22:7 23:2021
95 0:49 1:0.46 2:23 7:1 12:1185732 13:1 18:1 20:24 21:17 22:3 23:2021
400 0:13 1:0.5 2:55.00000000000001 5:1 12:1185732 13:1 19:1 20:12 21:11 22:7 23:2021
150 0:19 1:0.35 2:30 3:1 12:1185732 13:1 20:33 21:6 22:2 23:2021
450 0:19 1:0.3 2:30 4:1 12:1185732 13:1 20:33 21:6 22:1 23:2021
131 0:48 1:0.48 2:49 4:1 12:1185732 13:1 18:1 20:40 21:12 22:8 23:2021
47 0:13 1:0.53 2:38 6:1 12:1185732 13:1 18:1 20:12 21:3 22:7 23:2021
88 0:33 1:0.5700000000000001 2:46 5:1 12:1185732 13:1 18:1 20:22 21:3 22:12 23:2020
250 0:13 1:0.35 2:45.00000000000001 3:1 12:1185732 13:1 19:1 20:12 21:1 22:7 23:2021
250 0:49 1:0.35 2:25 7:1 12:1185732 13:1 20:24 21:18 22:10 23:2021
54 0:49 1:0.51 2:28 6:1 12:1185732 13:1 18:1 20:24 21:17 22:3 23:2021
36 0:48 1:0.45 2:43 6:1 12:1185732 13:1 18:1 20:40 21:12 22:10 23:2021
475 0:49 1:0.5 2:40 5:1 12:1185732 13:1 20:24 21:18 22:8 23:2021
400 0:50 1:0.35 2:60.00000000000001 3:1 12:1197831 13:1 18:1 20:15 21:12 22:12 23:2021
46 0:48 1:0.46 2:47 12:1185732 13:1 18:1 20:40 21:12 22:8 23:2021
98 0:17 1:0.55 2:53 5:1 12:1185732 13:1 18:1 20:14 21:6 22:8 23:2021
68 0:49 1:0.47 2:32 12:1185732 13:1 18:1 20:24 21:18 22:10 23:2021
175 0:13 1:0.4 2:40 6:1 12:1185732 13:1 19:1 20:12 21:3 22:7 23:2021
250 0:49 1:0.4 2:25.00000000000001 6:1 12:1185732 13:1 20:24 21:18 22:2 23:2021
125 0:17 1:0.3 2:35 6:1 12:1185732 13:1 20:14 21:7 22:5 23:2021
350 0:17 1:0.4 2:55.00000000000001 5:1 12:1185732 13:1 20:14 21:6 22:8 23:2021
250 0:13 1:0.35 2:40 7:1 12:1185732 13:1 19:1 20:12 21:8 22:7 23:2021
350 0:49 1:0.5 2:30 5:1 12:1185732 13:1 20:24 21:18 22:4 23:2021
175 0:38 1:0.4 2:35 6:1 12:1185732 13:1 19:1 20:26 21:29 22:6 23:2021
61 0:17 1:0.5 2:36 5:1 12:1185732 13:1 18:1 20:14 21:7 22:9 23:2021
60 0:38 1:0.49 2:39 7:1 12:1185732 13:1 18:1 20:26 21:28 22:7 23:2021
39 0:17 1:0.64 2:28 12:1185732 13:1 18:1 20:14 21:5 22:3 23:2021
100 0:33 1:0.3 2:30 7:1 12:1185732 13:1 20:22 21:6 22:11 23:2020
125 0:38 1:0.4 2:30 6:1 12:1185732 13:1 19:1 20:26 21:23 22:7 23:2021
91 0:49 1:0.55 2:24 6:1 12:1185732 13:1 18:1 20:24 21:18 22:8 23:2021
65 0:49 1:0.45 2:36 12:1185732 13:1 18:1 20:24 21:18 22:4 23:2021
68 0:17 1:0.54 2:14 5:1 12:1185732 13:1 18:1 20:14 21:6 22:2 23:2021
21 0:38 1:0.48 2:29 12:1185732 13:1 18:1 20:26 21:12 22:7 23:2021
38 0:33 1:0.45 2:34 3:1 12:1185732 13:1 18:1 20:22 21:24 22:10 23:2020
620 0:49 1:0.4 2:35 4:1 12:1185732 13:1 20:24 21:17 22:3 23:2021
450 0:49 1:0.35 2:35 3:1 12:1185732 13:1 20:24 21:17 22:12 23:2021
78 0:48 1:0.45 2:42 3:1 12:1185732 13:1 18:1 20:40 21:12 22:8 23:2021
445 0:33 1:0.35 2:40 4:1 12:1185732 13:1 20:22 21:29 22:10 23:2020
77 0:49 1:0.47 2:23 12:1185732 13:1 18:1 20:24 21:19 22:9 23:2021
60 0:17 1:0.6 2:46 12:1185732 13:1 18:1 20:14 21:5 22:7 23:2021
42 0:38 1:0.5 2:42 12:1185732 13:1 18:1 20:26 21:24 22:6 23:2021
63 0:13 1:0.5 2:37 6:1 12:1185732 13:1 18:1 20:12 21:15 22:7 23:2021
59 0:49 1:0.5 2:23 6:1 12:1185732 13:1 18:1 20:24 21:18 22:10 23:2021
150 0:38 1:0.35 2:30 7:1 12:1185732 13:1 19:1 20:26 21:4 22:6 23:2021
300 0:19 1:0.3 2:50 3:1 12:1185732 13:1 20:33 21:8 22:12 23:2021
20 0:33 1:0.41 2:50 12:1185732 13:1 18:1 20:22 21:14 22:11 23:2020
142 0:49 1:0.65 2:42 5:1 12:1185732 13:1 18:1 20:24 21:18 22:6 23:2021
80 0:38 1:0.49 2:42 3:1 12:1185732 13:1 18:1 20:26 21:3 22:7 23:2021
225 0:17 1:0.3 2:40 7:1 12:1185732 13:1 20:14 21:6 22:8 23:2021
42 0:48 1:0.4 2:43 7:1 12:1185732 13:1 18:1 20:40 21:12 22:10 23:2021
425 0:49 1:0.35 2:30 7:1 12:1185732 13:1 20:24 21:17 22:7 23:2021
600 0:49 1:0.4 2:35 4:1 12:1185732 13:1 20:24 21:18 22:6 23:2021
100 0:33 1:0.3 2:40 3:1 12:1185732 13:1 20:22 21:5 22:11 23:2020
19 0:33 1:0.42 2:47 12:1185732 13:1 18:1 20:22 21:2 22:11 23:2020
34 0:33 1:0.44 2:32 12:1185732 13:1 18:1 20:22 21:8 22:12 23:2020
225 0:17 1:0.35 2:40 3:1 12:1185732 13:1 20:14 21:7 22:5 23:2021
52 0:38 1:0.48 2:36 7:1 12:1185732 13:1 18:1 20:26 21:4 22:7 23:2021
200 0:13 1:0.35 2:50 3:1 12:1185732 13:1 19:1 20:12 21:13 22:6 23:2021
73 0:19 1:0.45 2:48 7:1 12:1185732 13:1 18:1 20:33 21:8 22:12 23:2021
60 0:13 1:0.48 2:46 3:1 12:1185732 13:1 18:1 20:12 21:13 22:6 23:2021
150 0:33 1:0.35 2:35 6:1 12:1185732 13:1 19:1 20:22 21:19 22:11 23:2020
36 0:50 1:0.4 2:34 6:1 12:1185732 13:1 18:1 20:15 21:12 22:1 23:2021
47 0:33 1:0.55 2:38 5:1 12:1185732 13:1 18:1 20:22 21:3 22:11 23:2020
325 0:13 1:0.35 2:45.00000000000001 3:1 12:1185732 13:1 19:1 20:12 21:13 22:7 23:2021
200 0:33 1:0.45 2:49.99999999999999 5:1 12:1185732 13:1 19:1 20:22 21:15 22:12 23:2020
0 0:38 1:0.55 2:33 6:1 12:1185732 13:1 18:1 20:26 21:5 22:6 23:2021
65 0:17 1:0.4 2:9 7:1 12:1185732 13:1 18:1 20:14 21:5 22:3 23:2021
7 0:38 1:0.48 2:37 12:1185732 13:1 18:1 20:26 21:18 22:7 23:2021
138 0:18 1:0.48 2:48 6:1 12:1185732 13:1 18:1 20:21 21:15 22:12 23:2021
350 0:48 1:0.4 2:55.00000000000001 5:1 12:1185732 13:1 18:1 20:40 21:12 22:8 23:2021
400 0:38 1:0.4 2:40 4:1 12:1185732 13:1 19:1 20:26 21:8 22:7 23:2021
113 0:19 1:0.45 2:27 4:1 12:1185732 13:1 18:1 20:33 21:6 22:1 23:2021
49 0:17 1:0.49 2:18 3:1 12:1185732 13:1 18:1 20:14 21:6 22:4 23:2021
400 0:49 1:0.5 2:49.99999999999999 5:1 12:1185732 13:1 20:24 21:18 22:11 23:2021
175 0:33 1:0.35 2:35 6:1 12:1185732 13:1 19:1 20:22 21:1 22:12 23:2020
425 0:18 1:0.35 2:20 7:1 12:1185732 13:1 20:21 21:18 22:1 23:2021
138 0:50 1:0.49 2:38 4:1 12:1185732 13:1 18:1 20:15 21:12 22:1 23:2021
350 0:49 1:0.4 2:25.00000000000001 6:1 12:1185732 13:1 20:24 21:18 22:6 23:2021
65 0:13 1:0.47 2:46 3:1 12:1185732 13:1 18:1 20:12 21:31 22:7 23:2021
150 0:38 1:0.5 2:44.99999999999999 5:1 12:1185732 13:1 19:1 20:26 21:19 22:7 23:2021
350 0:49 1:0.5 2:49.99999999999999 5:1 12:1185732 13:1 20:24 21:19 22:5 23:2021
156 0:18 1:0.5 2:27 4:1 12:1185732 13:1 18:1 20:21 21:18 22:1 23:2021
275 0:17 1:0.35 2:30.00000000000001 3:1 12:1185732 13:1 20:14 21:7 22:9 23:2021
75 0:17 1:0.46 2:32 3:1 12:1185732 13:1 18:1 20:14 21:6 22:10 23:2021
250 0:33 1:0.45 2:35 5:1 12:1185732 13:1 20:22 21:22 22:10 23:2020
225 0:49 1:0.35 2:40 12:1185732 13:1 20:24 21:18 22:4 23:2021
200 0:19 1:0.35 2:60 12:1185732 13:1 20:33 21:8 22:12 23:2021
220 0:50 1:0.35 2:25.00000000000002 7:1 12:1197831 13:1 18:1 20:15 21:13 22:11 23:2021
200 0:13 1:0.35 2:55.00000000000001 3:1 12:1185732 13:1 19:1 20:12 21:25 22:6 23:2021
325 0:49 1:0.35 2:40 12:1185732 13:1 20:24 21:18 22:2 23:2021
450 0:33 1:0.35 2:45 4:1 12:1185732 13:1 19:1 20:22 21:4 22:12 23:2020
23 0:38 1:0.45 2:32 3:1 12:1185732 13:1 18:1 20:26 21:9 22:6 23:2021
95 0:50 1:0.46 2:58 7:1 12:1197831 13:1 18:1 20:15 21:12 22:12 23:2021
58 0:13 1:0.45 2:59 12:1185732 13:1 18:1 20:12 21:9 22:8 23:2021
575 0:49 1:0.4 2:35 4:1 12:1185732 13:1 20:24 21:18 22:4 23:2021
125 0:38 1:0.4 2:30 6:1 12:1185732 13:1 19:1 20:26 21:5 22:7 23:2021
150 0:38 1:0.35 2:35.00000000000001 3:1 12:1185732 13:1 19:1 20:26 21:21 22:6 23:2021
94 0:13 1:0.65 2:50 5:1 12:1185732 13:1 18:1 20:12 21:17 22:7 23:2021
150 0:48 1:0.3 2:30 7:1 12:1185732 13:1 18:1 20:40 21:12 22:4 23:2021
300 0:49 1:0.35 2:30 7:1 12:1185732 13:1 20:24 21:19 22:5 23:2021
130 0:49 1:0.47 2:33 3:1 12:1185732 13:1 18:1 20:24 21:17 22:7 23:2021
125 0:38 1:0.35 2:44.99999999999999 12:1185732 13:1 19:1 20:26 21:25 22:5 23:2021
250 0:19 1:0.3 2:40 3:1 12:1185732 13:1 20:33 21:9 22:11 23:2021
225 0:48 1:0.3 2:40 7:1 12:1185732 13:1 18:1 20:40 21:11 22:7 23:2021
125 0:17 1:0.3 2:35 6:1 12:1185732 13:1 20:14 21:6 22:10 23:2021
125 0:13 1:0.35 2:60 12:1185732 13:1 19:1 20:12 21:28 22:6 23:2021
63 0:13 1:0.6 2:64 5:1 12:1185732 13:1 18:1 20:12 21:29 22:6 23:2021
59 0:48 1:0.42 2:27 7:1 12:1185732 13:1 18:1 20:40 21:11 22:3 23:2021
39 0:38 1:0.62 2:34 5:1 12:1185732 13:1 18:1 20:26 21:13 22:6 23:2021
81 0:49 1:0.48 2:43 12:1185732 13:1 18:1 20:24 21:18 22:11 23:2021
98 0:33 1:0.47 2:41 4:1 12:1185732 13:1 18:1 20:22 21:10 22:12 23:2020
325 0:38 1:0.5 2:50 5:1 12:1185732 13:1 19:1 20:26 21:25 22:6 23:2021
400 0:49 1:0.35 2:35 7:1 12:1185732 13:1 20:24 21:18 22:8 23:2021
300 0:38 1:0.35 2:40.00000000000001 3:1 12:1185732 13:1 19:1 20:26 21:27 22:6 23:2021
100 0:38 1:0.35 2:35 7:1 12:1185732 13:1 19:1 20:26 21:16 22:6 23:2021
75 0:38 1:0.35 2:25.00000000000001 7:1 12:1185732 13:1 19:1 20:26 21:10 22:6 23:2021
44 0:13 1:0.53 2:36 6:1 12:1185732 13:1 18:1 20:12 21:21 22:7 23:2021
250 0:13 1:0.35 2:50 3:1 12:1185732 13:1 19:1 20:12 21:31 22:7 23:2021
38 0:38 1:0.5 2:33 3:1 12:1185732 13:1 18:1 20:26 21:28 22:5 23:2021
13 0:38 1:0.46 2:46 12:1185732 13:1 18:1 20:26 21:18 22:6 23:2021
125 0:38 1:0.35 2:40.00000000000001 3:1 12:1185732 13:1 19:1 20:26 21:15 22:6 23:2021
150 0:48 1:0.35 2:45 12:1185732 13:1 18:1 20:40 21:13 22:9 23:2021
75 0:13 1:0.4 2:45 6:1 12:1185732 13:1 19:1 20:12 21:15 22:6 23:2021
300 0:48 1:0.3 2:45.00000000000001 3:1 12:1185732 13:1 18:1 20:40 21:12 22:8 23:2021
325 0:49 1:0.4 2:25.00000000000001 6:1 12:1185732 13:1 20:24 21:18 22:8 23:2021
50 0:38 1:0.35 2:49.99999999999999 12:1185732 13:1 19:1 20:26 21:18 22:6 23:2021
475 0:38 1:0.4 2:35 4:1 12:1185732 13:1 19:1 20:26 21:27 22:5 23:2021
75 0:13 1:0.48 2:46 3:1 12:1185732 13:1 18:1 20:12 21:6 22:8 23:2021
60 0:48 1:0.45 2:45 3:1 12:1185732 13:1 18:1 20:40 21:13 22:5 23:2021
200 0:48 1:0.3 2:40 3:1 12:1185732 13:1 18:1 20:40 21:11 22:3 23:2021
620 0:49 1:0.4 2:40 4:1 12:1185732 13:1 20:24 21:19 22:5 23:2021
26 0:19 1:0.45 2:24 6:1 12:1185732 13:1 18:1 20:33 21:6 22:1 23:2021
30 0:38 1:0.48 2:32 7:1 12:1185732 13:1 18:1 20:26 21:16 22:6 23:2021
80 0:49 1:0.49 2:23 7:1 12:1185732 13:1 18:1 20:24 21:18 22:11 23:2021
200 0:38 1:0.35 2:40 7:1 12:1185732 13:1 19:1 20:26 21:28 22:7 23:2021
80 0:48 1:0.4 2:39 3:1 12:1185732 13:1 18:1 20:40 21:13 22:9 23:2021
60 0:38 1:0.62 2:32 5:1 12:1185732 13:1 18:1 20:26 21:1 22:6 23:2021
75 0:33 1:0.3 2:44.99999999999999 12:1185732 13:1 19:1 20:22 21:14 22:12 23:2020
54 0:13 1:0.53 2:49 6:1 12:1185732 13:1 18:1 20:12 21:8 22:8 23:2021
150 0:33 1:0.3 2:25 7:1 12:1185732 13:1 19:1 20:22 21:6 22:12 23:2020
122 0:50 1:0.47 2:23 4:1 12:1197831 13:1 18:1 20:15 21:13 22:11 23:2021
125 0:33 1:0.3 2:40 7:1 12:1185732 13:1 20:22 21:12 22:11 23:2020
325 0:48 1:0.4 2:55.00000000000001 5:1 12:1185732 13:1 18:1 20:40 21:12 22:6 23:2021
49 0:17 1:0.4 2:24 7:1 12:1185732 13:1 18:1 20:14 21:7 22:9 23:2021
350 0:50 1:0.35 2:60.00000000000001 7:1 12:1197831 13:1 18:1 20:15 21:12 22:12 23:2021
550 0:38 1:0.4 2:45 4:1 12:1185732 13:1 19:1 20:26 21:26 22:6 23:2021
51 0:13 1:0.47 2:43 3:1 12:1185732 13:1 18:1 20:12 21:7 22:6 23:2021
100 0:33 1:0.3 2:35 7:1 12:1185732 13:1 19:1 20:22 21:12 22:12 23:2020
75 0:48 1:0.3 2:35 6:1 12:1185732 13:1 18:1 20:40 21:12 22:4 23:2021
88 0:50 1:0.46 2:73 5:1 12:1197831 13:1 18:1 20:15 21:13 22:11 23:2021
83 0:50 1:0.48 2:54 6:1 12:1197831 13:1 18:1 20:15 21:13 22:11 23:2021
400 0:49 1:0.5 2:30 5:1 12:1185732 13:1 20:24 21:18 22:2 23:2021
65 0:48 1:0.4 2:36 7:1 12:1185732 13:1 18:1 20:40 21:12 22:8 23:2021
41 0:13 1:0.5 2:56 12:1185732 13:1 18:1 20:12 21:3 22:8 23:2021
163 0:18 1:0.65 2:59 5:1 12:1185732 13:1 18:1 20:21 21:15 22:12 23:2021
300 0:49 1:0.35 2:44.99999999999999 12:1185732 13:1 20:24 21:18 22:11 23:2021
200 0:13 1:0.35 2:40 7:1 12:1185732 13:1 19:1 20:12 21:20 22:7 23:2021
100 0:38 1:0.35 2:20 7:1 12:1185732 13:1 19:1 20:26 21:10 22:7 23:2021
325 0:17 1:0.4 2:55.00000000000001 5:1 12:1185732 13:1 20:14 21:6 22:6 23:2021
50 0:17 1:0.45 2:23 7:1 12:1185732 13:1 18:1 20:14 21:6 22:6 23:2021
25 0:38 1:0.47 2:29 7:1 12:1185732 13:1 18:1 20:26 21:22 22:7 23:2021
550 0:33 1:0.35 2:50 4:1 12:1185732 13:1 19:1 20:22 21:22 22:11 23:2020
150 0:17 1:0.5 2:44.99999999999999 12:1185732 13:1 20:14 21:7 22:5 23:2021
44 0:33 1:0.41 2:41 12:1185732 13:1 18:1 20:22 21:27 22:10 23:2020
175 0:33 1:0.3 2:40.00000000000001 3:1 12:1185732 13:1 19:1 20:22 21:17 22:11 23:2020
150 0:38 1:0.5 2:35 5:1 12:1185732 13:1 19:1 20:26 21:13 22:6 23:2021
138 0:17 1:0.44 2:49 4:1 12:1185732 13:1 18:1 20:14 21:5 22:7 23:2021
61 0:33 1:0.6 2:59 5:1 12:1185732 13:1 18:1 20:22 21:21 22:12 23:2020
550 0:18 1:0.4 2:60 12:1185732 13:1 20:21 21:15 22:12 23:2021
65 0:13 1:0.6 2:61 5:1 12:1185732 13:1 18:1 20:12 21:4 22:8 23:2021
182 0:18 1:0.53 2:29 4:1 12:1185732 13:1 18:1 20:21 21:18 22:2 23:2021
94 0:18 1:0.49 2:28 3:1 12:1185732 13:1 18:1 20:21 21:18 22:2 23:2021
28 0:13 1:0.53 2:39 6:1 12:1185732 13:1 18:1 20:12 21:9 22:6 23:2021
400 0:38 1:0.4 2:40 4:1 12:1185732 13:1 19:1 20:26 21:20 22:6 23:2021
175 0:48 1:0.3 2:35 7:1 12:1185732 13:1 18:1 20:40 21:13 22:9 23:2021
150 0:33 1:0.3 2:50 12:1185732 13:1 19:1 20:22 21:20 22:11 23:2020
25 0:33 1:0.42 2:32 7:1 12:1185732 13:1 18:1 20:22 21:12 22:12 23:2020
200 0:33 1:0.3 2:50 12:1185732 13:1 19:1 20:22 21:26 22:11 23:2020
39 0:13 1:0.45 2:48 7:1 12:1185732 13:1 18:1 20:12 21:26 22:7 23:2021
300 0:13 1:0.35 2:45.00000000000001 3:1 12:1185732 13:1 19:1 20:12 21:19 22:7 23:2021
225 0:33 1:0.3 2:45 7:1 12:1185732 13:1 19:1 20:22 21:24 22:12 23:2020
25 0:38 1:0.48 2:18 7:1 12:1185732 13:1 18:1 20:26 21:10 22:7 23:2021
117 0:38 1:0.5 2:49 4:1 12:1185732 13:1 18:1 20:26 21:26 22:7 23:2021
115 0:13 1:0.55 2:56 4:1 12:1185732 13:1 18:1 20:12 21:24 22:7 23:2021
125 0:48 1:0.35 2:54.99999999999999 12:1185732 13:1 18:1 20:40 21:13 22:5 23:2021
400 0:33 1:0.35 2:40 4:1 12:1185732 13:1 20:22 21:4 22:11 23:2020
225 0:17 1:0.3 2:40 7:1 12:1185732 13:1 20:14 21:5 22:7 23:2021
250 0:19 1:0.4 2:64.99999999999999 5:1 12:1185732 13:1 20:33 21:9 22:11 23:2021
275 0:50 1:0.35 2:55.00000000000001 6:1 12:1197831 13:1 18:1 20:15 21:13 22:11 23:2021
275 0:33 1:0.45 2:59.99999999999999 5:1 12:1185732 13:1 19:1 20:22 21:27 22:12 23:2020
81 0:38 1:0.45 2:37 3:1 12:1185732 13:1 18:1 20:26 21:27 22:6 23:2021
78 0:17 1:0.46 2:42 3:1 12:1185732 13:1 18:1 20:14 21:6 22:8 23:2021
47 0:50 1:0.44 2:39 3:1 12:1185732 13:1 18:1 20:15 21:12 22:2 23:2021
50 0:33 1:0.3 2:50 12:1185732 13:1 20:22 21:8 22:11 23:2020
175 0:48 1:0.3 2:45 7:1 12:1185732 13:1 18:1 20:40 21:13 22:5 23:2021
90 0:50 1:0.48 2:28 5:1 12:1197831 13:1 18:1 20:15 21:14 22:10 23:2021
65 0:38 1:0.62 2:54 5:1 12:1185732 13:1 18:1 20:26 21:31 22:7 23:2021
200 0:19 1:0.3 2:20.00000000000001 7:1 12:1185732 13:1 20:33 21:6 22:2 23:2021
300 0:17 1:0.35 2:45.00000000000001 3:1 12:1185732 13:1 20:14 21:5 22:7 23:2021
225 0:33 1:0.45 2:35 5:1 12:1185732 13:1 20:22 21:28 22:10 23:2020
65 0:13 1:0.6 2:60 5:1 12:1185732 13:1 18:1 20:12 21:29 22:7 23:2021
113 0:33 1:0.48 2:43 4:1 12:1185732 13:1 18:1 20:22 21:4 22:12 23:2020
175 0:33 1:0.3 2:30 7:1 12:1185732 13:1 20:22 21:31 22:10 23:2020
150 0:48 1:0.3 2:40 3:1 12:1185732 13:1 18:1 20:40 21:12 22:4 23:2021
63 0:17 1:0.52 2:46 5:1 12:1185732 13:1 18:1 20:14 21:6 22:4 23:2021
425 0:18 1:0.5 2:30 5:1 12:1185732 13:1 20:21 21:18 22:1 23:2021
300 0:50 1:0.35 2:60.00000000000001 6:1 12:1197831 13:1 18:1 20:15 21:12 22:12 23:2021
275 0:13 1:0.5 2:45 5:1 12:1185732 13:1 19:1 20:12 21:11 22:6 23:2021
26 0:33 1:0.44 2:29 7:1 12:1185732 13:1 18:1 20:22 21:6 22:11 23:2020
175 0:48 1:0.35 2:45 12:1185732 13:1 18:1 20:40 21:12 22:6 23:2021
19 0:13 1:0.53 2:41 6:1 12:1185732 13:1 18:1 20:12 21:15 22:6 23:2021
112 0:38 1:0.54 2:38 4:1 12:1185732 13:1 18:1 20:26 21:8 22:7 23:2021
54 0:48 1:0.43 2:32 7:1 12:1185732 13:1 18:1 20:40 21:12 22:6 23:2021
125 0:33 1:0.3 2:54.99999999999999 12:1185732 13:1 19:1 20:22 21:20 22:12 23:2020
525 0:48 1:0.35 2:50 4:1 12:1185732 13:1 18:1 20:40 21:12 22:8 23:2021
105 0:49 1:0.61 2:28 5:1 12:1185732 13:1 18:1 20:24 21:18 22:4 23:2021
41 0:38 1:0.62 2:51 5:1 12:1185732 13:1 18:1 20:26 21:19 22:6 23:2021
225 0:13 1:0.5 2:50 5:1 12:1185732 13:1 19:1 20:12 21:23 22:6 23:2021
145 0:33 1:0.3 2:40 7:1 12:1185732 13:1 19:1 20:22 21:18 22:12 23:2020
75 0:33 1:0.35 2:35 6:1 12:1185732 13:1 19:1 20:22 21:13 22:12 23:2020
225 0:48 1:0.3 2:40 7:1 12:1185732 13:1 18:1 20:40 21:12 22:8 23:2021
70 0:49 1:0.48 2:44 12:1185732 13:1 18:1 20:24 21:19 22:5 23:2021
175 0:17 1:0.35 2:20 3:1 12:1185732 13:1 20:14 21:6 22:4 23:2021
53 0:19 1:0.44 2:39 7:1 12:1185732 13:1 18:1 20:33 21:9 22:11 23:2021
124 0:33 1:0.5 2:50 4:1 12:1185732 13:1 18:1 20:22 21:22 22:12 23:2020
120 0:50 1:0.5 2:59 3:1 12:1197831 13:1 18:1 20:15 21:12 22:12 23:2021
250 0:13 1:0.35 2:40 7:1 12:1185732 13:1 19:1 20:12 21:14 22:7 23:2021
42 0:48 1:0.5 2:41 12:1185732 13:1 18:1 20:40 21:13 22:9 23:2021
350 0:49 1:0.35 2:40 12:1185732 13:1 20:24 21:18 22:6 23:2021
95 0:49 1:0.64 2:28 5:1 12:1185732 13:1 18:1 20:24 21:19 22:9 23:2021
91 0:33 1:0.47 2:46 4:1 12:1185732 13:1 18:1 20:22 21:16 22:12 23:2020
200 0:17 1:0.3 2:40 6:1 12:1185732 13:1 20:14 21:6 22:8 23:2021
150 0:13 1:0.35 2:60 12:1185732 13:1 19:1 20:12 21:3 22:8 23:2021
135 0:33 1:0.4500000000000001 2:32 4:1 12:1185732 13:1 18:1 20:22 21:23 22:10 23:2020
125 0:13 1:0.4 2:50 6:1 12:1185732 13:1 19:1 20:12 21:27 22:7 23:2021
163 0:49 1:0.52 2:41 4:1 12:1185732 13:1 18:1 20:24 21:17 22:12 23:2021
150 0:38 1:0.4 2:30 6:1 12:1185732 13:1 19:1 20:26 21:23 22:6 23:2021
200 0:13 1:0.35 2:50 12:1185732 13:1 19:1 20:12 21:16 22:7 23:2021
135 0:13 1:0.5 2:47 4:1 12:1185732 13:1 18:1 20:12 21:18 22:7 23:2021
250 0:19 1:0.4 2:54.99999999999999 5:1 12:1185732 13:1 20:33 21:9 22:10 23:2021
225 0:33 1:0.3 2:40 7:1 12:1185732 13:1 19:1 20:22 21:24 22:11 23:2020
225 0:13 1:0.35 2:35 7:1 12:1185732 13:1 19:1 20:12 21:8 22:6 23:2021
150 0:17 1:0.3 2:25.00000000000001 6:1 12:1185732 13:1 20:14 21:7 22:9 23:2021
122 0:13 1:0.52 2:48 4:1 12:1185732 13:1 18:1 20:12 21:18 22:6 23:2021
38 0:13 1:0.47 2:56 12:1185732 13:1 18:1 20:12 21:16 22:6 23:2021
75 0:13 1:0.49 2:49 3:1 12:1185732 13:1 18:1 20:12 21:25 22:7 23:2021
49 0:33 1:0.41 2:38 3:1 12:1185732 13:1 18:1 20:22 21:17 22:11 23:2020
51 0:33 1:0.48 2:38 6:1 12:1185732 13:1 18:1 20:22 21:25 22:11 23:2020
58 0:33 1:0.41 2:49 12:1185732 13:1 18:1 20:22 21:26 22:11 23:2020
44 0:13 1:0.46 2:48 3:1 12:1185732 13:1 18:1 20:12 21:19 22:6 23:2021
175 0:48 1:0.3 2:35 6:1 12:1185732 13:1 18:1 20:40 21:12 22:6 23:2021
94 0:48 1:0.53 2:50 5:1 12:1185732 13:1 18:1 20:40 21:12 22:6 23:2021
54 0:13 1:0.45 2:39 7:1 12:1185732 13:1 18:1 20:12 21:2 22:7 23:2021
25 0:33 1:0.35 2:35 6:1 12:1185732 13:1 20:22 21:7 22:11 23:2020
88 0:49 1:0.52 2:23 6:1 12:1185732 13:1 18:1 20:24 21:18 22:11 23:2021
125 0:33 1:0.3 2:40 3:1 12:1185732 13:1 20:22 21:30 22:10 23:2020
70 0:19 1:0.46 2:29 3:1 12:1185732 13:1 18:1 20:33 21:6 22:1 23:2021
134 0:13 1:0.54 2:58 4:1 12:1185732 13:1 18:1 20:12 21:24 22:6 23:2021
300 0:50 1:0.35 2:70 12:1197831 13:1 18:1 20:15 21:12 22:12 23:2021
28 0:13 1:0.53 2:48 6:1 12:1185732 13:1 18:1 20:12 21:27 22:6 23:2021
94 0:38 1:0.54 2:36 4:1 12:1185732 13:1 18:1 20:26 21:14 22:7 23:2021
100 0:13 1:0.35 2:60 12:1185732 13:1 19:1 20:12 21:22 22:6 23:2021
174 0:49 1:0.5 2:32 4:1 12:1185732 13:1 18:1 20:24 21:19 22:9 23:2021
94 0:17 1:0.5 2:51 5:1 12:1185732 13:1 18:1 20:14 21:5 22:7 23:2021
61 0:48 1:0.53 2:48 5:1 12:1185732 13:1 18:1 20:40 21:12 22:4 23:2021
275 0:38 1:0.35 2:45.00000000000001 3:1 12:1185732 13:1 19:1 20:26 21:3 22:7 23:2021
450 0:13 1:0.4 2:50 4:1 12:1185732 13:1 19:1 20:12 21:18 22:6 23:2021
47 0:13 1:0.49 2:53 12:1185732 13:1 18:1 20:12 21:4 22:6 23:2021
47 0:33 1:0.45 2:33 7:1 12:1185732 13:1 18:1 20:22 21:18 22:11 23:2020
98 0:33 1:0.55 2:54 5:1 12:1185732 13:1 18:1 20:22 21:27 22:11 23:2020
39 0:17 1:0.41 2:34 7:1 12:1185732 13:1 18:1 20:14 21:6 22:10 23:2021
150 0:17 1:0.5 2:40 12:1185732 13:1 20:14 21:6 22:2 23:2021
350 0:49 1:0.35 2:25 3:1 12:1185732 13:1 20:24 21:18 22:10 23:2021
75 0:13 1:0.4 2:45 6:1 12:1185732 13:1 19:1 20:12 21:21 22:6 23:2021
150 0:38 1:0.35 2:30 3:1 12:1185732 13:1 19:1 20:26 21:15 22:7 23:2021
54 0:19 1:0.41 2:47 6:1 12:1185732 13:1 18:1 20:33 21:8 22:12 23:2021
300 0:13 1:0.5 2:64.99999999999999 5:1 12:1185732 13:1 19:1 20:12 21:10 22:8 23:2021
58 0:33 1:0.43 2:34 3:1 12:1185732 13:1 18:1 20:22 21:11 22:12 23:2020
94 0:49 1:0.49 2:37 12:1185732 13:1 18:1 20:24 21:17 22:7 23:2021
125 0:33 1:0.35 2:25 6:1 12:1185732 13:1 19:1 20:22 21:7 22:12 23:2020
85 0:17 1:0.53 2:51 5:1 12:1185732 13:1 18:1 20:14 21:6 22:6 23:2021
375 0:49 1:0.35 2:40 12:1185732 13:1 20:24 21:17 22:7 23:2021
175 0:38 1:0.35 2:30 7:1 12:1185732 13:1 19:1 20:26 21:22 22:6 23:2021
400 0:19 1:0.35 2:49.99999999999999 4:1 12:1185732 13:1 20:33 21:9 22:11 23:2021
44 0:48 1:0.43 2:38 6:1 12:1185732 13:1 18:1 20:40 21:11 22:7 23:2021
400 0:49 1:0.35 2:30.00000000000001 3:1 12:1185732 13:1 20:24 21:19 22:9 23:2021
75 0:33 1:0.35 2:30 6:1 12:1185732 13:1 20:22 21:26 22:10 23:2020
250 0:17 1:0.4 2:50 5:1 12:1185732 13:1 20:14 21:6 22:4 23:2021
175 0:48 1:0.35 2:50 12:1185732 13:1 18:1 20:40 21:12 22:8 23:2021
69 0:38 1:0.6 2:44 5:1 12:1185732 13:1 18:1 20:26 21:7 22:7 23:2021
87 0:49 1:0.45 2:34 3:1 12:1185732 13:1 18:1 20:24 21:17 22:3 23:2021
49 0:48 1:0.45 2:32 6:1 12:1185732 13:1 18:1 20:40 21:12 22:6 23:2021
21 0:33 1:0.46 2:32 6:1 12:1185732 13:1 18:1 20:22 21:13 22:12 23:2020
175 0:13 1:0.35 2:54.99999999999999 12:1185732 13:1 19:1 20:12 21:4 22:6 23:2021
113 0:18 1:0.45 2:19 7:1 12:1185732 13:1 18:1 20:21 21:18 22:2 23:2021
100 0:49 1:0.47 2:28 3:1 12:1185732 13:1 18:1 20:24 21:19 22:9 23:2021
495 0:13 1:0.4 2:60 4:1 12:1185732 13:1 19:1 20:12 21:24 22:6 23:2021
33 0:38 1:0.5 2:38 3:1 12:1185732 13:1 18:1 20:26 21:15 22:6 23:2021
475 0:17 1:0.3 2:35 4:1 12:1185732 13:1 20:14 21:7 22:9 23:2021
275 0:17 1:0.35 2:30.00000000000001 3:1 12:1185732 13:1 20:14 21:6 22:6 23:2021
38 0:48 1:0.47 2:54 12:1185732 13:1 18:1 20:40 21:12 22:10 23:2021
63 0:33 1:0.42 2:36 7:1 12:1185732 13:1 18:1 20:22 21:24 22:11 23:2020
175 0:17 1:0.3 2:40 6:1 12:1185732 13:1 20:14 21:5 22:7 23:2021
225 0:48 1:0.4 2:40 5:1 12:1185732 13:1 18:1 20:40 21:11 22:3 23:2021
46 0:48 1:0.42 2:43 7:1 12:1185732 13:1 18:1 20:40 21:13 22:5 23:2021
150 0:19 1:0.35 2:60 12:1185732 13:1 20:33 21:9 22:11 23:2021
70 0:49 1:0.52 2:24 6:1 12:1185732 13:1 18:1 20:24 21:18 22:2 23:2021
131 0:49 1:0.51 2:34 4:1 12:1185732 13:1 18:1 20:24 21:18 22:10 23:2021
75 0:48 1:0.3 2:35 6:1 12:1185732 13:1 18:1 20:40 21:11 22:3 23:2021
325 0:18 1:0.35 2:40 12:1185732 13:1 20:21 21:18 22:1 23:2021
150 0:38 1:0.35 2:49.99999999999999 12:1185732 13:1 19:1 20:26 21:30 22:7 23:2021
200 0:48 1:0.3 2:40 6:1 12:1185732 13:1 18:1 20:40 21:12 22:8 23:2021
75 0:13 1:0.49 2:38 7:1 12:1185732 13:1 18:1 20:12 21:14 22:7 23:2021
13 0:33 1:0.49 2:36 6:1 12:1185732 13:1 18:1 20:22 21:13 22:11 23:2020
350 0:49 1:0.5 2:39.99999999999999 5:1 12:1185732 13:1 20:24 21:18 22:10 23:2021
38 0:33 1:0.44 2:37 7:1 12:1185732 13:1 18:1 20:22 21:12 22:11 23:2020
