175 0:36 1:0.35 2:35 3:1 8:1 12:1185732 14:1 20:29 21:7 22:4 23:2021
75 0:36 1:0.54 2:37 7:1 8:1 12:1185732 14:1 18:1 20:29 21:7 22:8 23:2021
47 0:36 1:0.4 2:41 8:1 12:1185732 14:1 18:1 20:29 21:8 22:2 23:2021
77 0:51 1:0.47 2:33 3:1 8:1 12:1185732 14:1 18:1 20:7 21:10 22:1 23:2021
69 0:36 1:0.53 2:38 7:1 8:1 12:1185732 14:1 18:1 20:29 21:8 22:6 23:2021
375 0:36 1:0.35 2:45 3:1 8:1 12:1185732 14:1 20:29 21:6 22:7 23:2021
125 0:36 1:0.4 2:50 6:1 8:1 12:1185732 14:1 20:29 21:8 22:10 23:2021
225 0:36 1:0.4 2:35 5:1 8:1 12:1185732 14:1 20:29 21:6 22:3 23:2021
47 0:51 1:0.4 2:41 8:1 12:1185732 14:1 18:1 20:7 21:10 22:1 23:2021
98 0:51 1:0.55 2:64 5:1 8:1 12:1185732 14:1 18:1 20:7 21:14 22:11 23:2021
300 0:36 1:0.4 2:40 7:1 8:1 12:1185732 14:1 20:29 21:7 22:8 23:2021
65 0:36 1:0.45 2:46 8:1 12:1185732 14:1 18:1 20:29 21:8 22:6 23:2021
86 0:51 1:0.51 2:52 7:1 8:1 12:1185732 14:1 18:1 20:7 21:14 22:11 23:2021
145 1:0.41 2:37 3:1 8:1 12:1185732 14:1 18:1 20:31 21:12 22:2 23:2021
51 0:36 1:0.53 2:39 7:1 8:1 12:1185732 14:1 18:1 20:29 21:6 22:9 23:2021
105 0:36 1:0.53 2:52 5:1 8:1 12:1185732 14:1 18:1 20:29 21:7 22:8 23:2021
275 0:36 1:0.4 2:40 7:1 8:1 12:1185732 14:1 20:29 21:8 22:6 23:2021
98 0:51 1:0.54 2:53 6:1 8:1 12:1185732 14:1 18:1 20:7 21:13 22:12 23:2021
63 0:36 1:0.5 2:48 3:1 8:1 12:1185732 14:1 18:1 20:29 21:8 22:10 23:2021
275 0:51 1:0.4 2:35 5:1 8:1 12:1185732 14:1 20:7 21:10 22:1 23:2021
600 0:36 1:0.35 2:49.99999999999999 4:1 8:1 12:1185732 14:1 20:29 21:7 22:8 23:2021
72 0:51 1:0.4 2:60 8:1 12:1185732 14:1 18:1 20:7 21:14 22:11 23:2021
300 0:36 1:0.4 2:40 7:1 8:1 12:1185732 14:1 20:29 21:6 22:7 23:2021
182 1:0.64 2:69 5:1 8:1 12:1185732 14:1 18:1 20:31 21:8 22:12 23:2021
575 1:0.3 2:55.00000000000001 6:1 8:1 12:1185732 14:1 20:31 21:8 22:12 23:2021
350 0:36 1:0.4 2:54.99999999999999 5:1 8:1 12:1185732 14:1 20:29 21:6 22:5 23:2021
216 1:0.63 2:39 4:1 8:1 12:1185732 14:1 18:1 20:31 21:14 22:1 23:2021
450 0:36 1:0.4 2:54.99999999999999 5:1 8:1 12:1185732 14:1 20:29 21:6 22:7 23:2021
53 0:51 1:0.5 2:32 3:1 8:1 12:1185732 14:1 18:1 20:7 21:8 22:2 23:2021
38 0:36 1:0.41 2:58 8:1 12:1185732 14:1 18:1 20:29 21:8 22:10 23:2021
625 1:0.25 2:55.00000000000001 7:1 8:1 12:1185732 14:1 20:31 21:8 22:12 23:2021
600 1:0.3 2:40 3:1 8:1 12:1185732 14:1 20:31 21:14 22:1 23:2021
475 0:36 1:0.35 2:49.99999999999999 4:1 8:1 12:1185732 14:1 20:29 21:6 22:9 23:2021
600 0:51 1:0.35 2:65 4:1 8:1 12:1185732 14:1 20:7 21:13 22:12 23:2021
375 0:51 1:0.4 2:55.00000000000001 7:1 8:1 12:1185732 14:1 20:7 21:13 22:12 23:2021
425 0:36 1:0.35 2:54.99999999999999 4:1 8:1 12:1185732 14:1 20:29 21:8 22:10 23:2021
131 1:0.47 2:34 6:1 8:1 12:1185732 14:1 18:1 20:31 21:14 22:1 23:2021
85 0:51 1:0.46 2:53 3:1 8:1 12:1185732 14:1 18:1 20:7 21:14 22:11 23:2021
495 0:36 1:0.35 2:35 4:1 8:1 12:1185732 14:1 20:29 21:6 22:3 23:2021
175 0:51 1:0.35 2:35 3:1 8:1 12:1185732 14:1 20:7 21:8 22:2 23:2021
520 0:36 1:0.35 2:49.99999999999999 4:1 8:1 12:1185732 14:1 20:29 21:6 22:5 23:2021
100 0:36 1:0.4 2:30 6:1 8:1 12:1185732 14:1 20:29 21:8 22:2 23:2021
675 1:0.5 2:70 5:1 8:1 12:1185732 14:1 20:31 21:8 22:12 23:2021
275 0:36 1:0.4 2:35 5:1 8:1 12:1185732 14:1 20:29 21:8 22:2 23:2021
175 0:36 1:0.4 2:40 7:1 8:1 12:1185732 14:1 20:29 21:6 22:9 23:2021
56 0:36 1:0.5 2:38 6:1 8:1 12:1185732 14:1 18:1 20:29 21:6 22:5 23:2021
143 1:0.49 2:29 7:1 8:1 12:1185732 14:1 18:1 20:31 21:12 22:2 23:2021
84 0:51 1:0.53 2:51 6:1 8:1 12:1185732 14:1 18:1 20:7 21:14 22:11 23:2021
500 1:0.3 2:40 3:1 8:1 12:1185732 14:1 20:31 21:12 22:2 23:2021
156 1:0.45 2:39 3:1 8:1 12:1185732 14:1 18:1 20:31 21:14 22:1 23:2021
350 0:36 1:0.35 2:45 3:1 8:1 12:1185732 14:1 20:29 21:8 22:6 23:2021
375 0:51 1:0.4 2:70 5:1 8:1 12:1185732 14:1 20:7 21:14 22:11 23:2021
135 0:51 1:0.47 2:60 4:1 8:1 12:1185732 14:1 18:1 20:7 21:14 22:11 23:2021
550 1:0.35 2:30 7:1 8:1 12:1185732 14:1 20:31 21:12 22:2 23:2021
75 0:36 1:0.4 2:30 6:1 8:1 12:1185732 14:1 20:29 21:6 22:3 23:2021
63 0:51 1:0.51 2:24 7:1 8:1 12:1185732 14:1 18:1 20:7 21:8 22:2 23:2021
250 0:36 1:0.4 2:40 6:1 8:1 12:1185732 14:1 20:29 21:8 22:6 23:2021
325 0:51 1:0.35 2:55.00000000000001 3:1 8:1 12:1185732 14:1 20:7 21:14 22:11 23:2021
250 0:36 1:0.4 2:54.99999999999999 5:1 8:1 12:1185732 14:1 20:29 21:6 22:9 23:2021
225 0:51 1:0.4 2:25.00000000000001 7:1 8:1 12:1185732 14:1 20:7 21:8 22:2 23:2021
600 0:36 1:0.35 2:49.99999999999999 4:1 8:1 12:1185732 14:1 20:29 21:8 22:6 23:2021
575 1:0.35 2:65 8:1 12:1185732 14:1 20:31 21:8 22:12 23:2021
124 0:36 1:0.49 2:46 4:1 8:1 12:1185732 14:1 18:1 20:29 21:6 22:9 23:2021
225 0:36 1:0.3 2:49.99999999999999 8:1 12:1185732 14:1 20:29 21:6 22:5 23:2021
144 0:36 1:0.46 2:32 4:1 8:1 12:1185732 14:1 18:1 20:29 21:6 22:3 23:2021
375 0:36 1:0.35 2:45 3:1 8:1 12:1185732 14:1 20:29 21:7 22:8 23:2021
100 0:51 1:0.48 2:50 3:1 8:1 12:1185732 14:1 18:1 20:7 21:13 22:12 23:2021
59 0:36 1:0.53 2:24 7:1 8:1 12:1185732 14:1 18:1 20:29 21:6 22:3 23:2021
175 0:36 1:0.4 2:25.00000000000001 7:1 8:1 12:1185732 14:1 20:29 21:7 22:4 23:2021
72 0:36 1:0.5 2:41 3:1 8:1 12:1185732 14:1 18:1 20:29 21:6 22:9 23:2021
100 0:36 1:0.4 2:30 6:1 8:1 12:1185732 14:1 20:29 21:7 22:4 23:2021
175 0:36 1:0.3 2:49.99999999999999 8:1 12:1185732 14:1 20:29 21:7 22:8 23:2021
325 0:51 1:0.3 2:65 8:1 12:1185732 14:1 20:7 21:13 22:12 23:2021
400 0:36 1:0.4 2:54.99999999999999 5:1 8:1 12:1185732 14:1 20:29 21:8 22:6 23:2021
73 0:36 1:0.53 2:50 5:1 8:1 12:1185732 14:1 18:1 20:29 21:6 22:9 23:2021
102 0:36 1:0.52 2:51 5:1 8:1 12:1185732 14:1 18:1 20:29 21:6 22:5 23:2021
120 0:36 1:0.5 2:50 5:1 8:1 12:1185732 14:1 18:1 20:29 21:8 22:6 23:2021
46 0:36 1:0.43 2:46 8:1 12:1185732 14:1 18:1 20:29 21:7 22:8 23:2021
850 1:0.5 2:40 4:1 8:1 12:1185732 14:1 20:31 21:12 22:2 23:2021
125 0:36 1:0.3 2:45 8:1 12:1185732 14:1 20:29 21:6 22:3 23:2021
250 0:36 1:0.3 2:49.99999999999999 8:1 12:1185732 14:1 20:29 21:8 22:6 23:2021
238 1:0.61 2:37 4:1 8:1 12:1185732 14:1 18:1 20:31 21:12 22:2 23:2021
63 0:36 1:0.54 2:36 6:1 8:1 12:1185732 14:1 18:1 20:29 21:6 22:7 23:2021
320 0:51 1:0.4 2:55.00000000000001 7:1 8:1 12:1185732 14:1 20:7 21:14 22:11 23:2021
138 0:51 1:0.5 2:32 4:1 8:1 12:1185732 14:1 18:1 20:7 21:10 22:1 23:2021
58 0:36 1:0.49 2:32 3:1 8:1 12:1185732 14:1 18:1 20:29 21:6 22:3 23:2021
125 0:51 1:0.4 2:30 6:1 8:1 12:1185732 14:1 20:7 21:10 22:1 23:2021
75 0:36 1:0.5 2:38 7:1 8:1 12:1185732 14:1 18:1 20:29 21:6 22:5 23:2021
123 0:51 1:0.5 2:65 5:1 8:1 12:1185732 14:1 18:1 20:7 21:13 22:12 23:2021
72 0:51 1:0.51 2:24 7:1 8:1 12:1185732 14:1 18:1 20:7 21:10 22:1 23:2021
225 0:36 1:0.4 2:25.00000000000001 7:1 8:1 12:1185732 14:1 20:29 21:6 22:3 23:2021
225 0:36 1:0.35 2:45 3:1 8:1 12:1185732 14:1 20:29 21:6 22:5 23:2021
