131 0:9 1:0.55 2:49 4:1 8:1 12:1185732 18:1 20:44 21:21 22:1 23:2021
53 0:9 1:0.42 2:41 8:1 12:1185732 19:1 20:44 21:11 22:4 23:2021
73 0:30 1:0.45 2:59 8:1 12:1185732 18:1 20:28 21:18 22:8 23:2021
96 0:9 1:0.39 2:42 6:1 8:1 12:1185732 19:1 20:44 21:11 22:11 23:2021
70 0:8 1:0.41 2:37 8:1 12:1185732 19:1 20:20 21:14 22:1 23:2021
50 0:9 1:0.47 2:58 8:1 12:1185732 18:1 20:44 21:10 22:9 23:2021
80 0:8 1:0.39 2:51 6:1 8:1 12:1185732 18:1 20:20 21:14 22:11 23:2021
200 0:42 1:0.4 2:40 5:1 8:1 12:1185732 19:1 20:18 21:29 22:10 23:2021
91 0:9 1:0.53 2:45 3:1 8:1 12:1185732 18:1 20:44 21:21 22:1 23:2021
675 0:30 1:0.4 2:65 4:1 8:1 12:1185732 19:1 20:28 21:18 22:8 23:2021
300 0:30 1:0.4 2:60.00000000000001 3:1 8:1 12:1185732 20:28 21:17 22:5 23:2021
75 0:9 1:0.46 2:49 7:1 8:1 12:1185732 18:1 20:44 21:10 22:5 23:2021
73 0:30 1:0.44 2:38 7:1 8:1 12:1185732 18:1 20:28 21:18 22:4 23:2021
325 0:9 1:0.35 2:60 8:1 12:1185732 20:44 21:10 22:7 23:2021
58 0:30 1:0.43 2:42 6:1 8:1 12:1185732 18:1 20:28 21:19 22:2 23:2021
140 0:42 1:0.49 2:38 4:1 8:1 12:1185732 18:1 20:18 21:18 22:10 23:2021
150 0:9 1:0.35 2:40 6:1 8:1 12:1185732 20:44 21:12 22:2 23:2021
300 0:9 1:0.4 2:65 5:1 8:1 12:1185732 20:44 21:10 22:9 23:2021
147 0:42 1:0.46 2:50 4:1 8:1 12:1185732 18:1 20:18 21:21 22:12 23:2021
550 0:30 1:0.4 2:50 4:1 8:1 12:1185732 20:28 21:18 22:4 23:2021
154 0:30 1:0.53 2:48 4:1 8:1 12:1185732 18:1 20:28 21:18 22:4 23:2021
131 0:30 1:0.5 2:55 3:1 8:1 12:1185732 18:1 20:28 21:17 22:7 23:2021
88 0:30 1:0.46 2:36 3:1 8:1 12:1185732 19:1 20:28 21:17 22:3 23:2021
85 0:42 1:0.51 2:56 5:1 8:1 12:1185732 18:1 20:18 21:16 22:11 23:2021
300 0:8 1:0.25 2:65 8:1 12:1185732 20:20 21:13 22:12 23:2021
115 0:30 1:0.46 2:65 5:1 8:1 12:1185732 18:1 20:28 21:17 22:5 23:2021
85 0:30 1:0.42 2:38 3:1 8:1 12:1185732 19:1 20:28 21:18 22:4 23:2021
78 0:30 1:0.45 2:63 8:1 12:1185732 18:1 20:28 21:17 22:5 23:2021
425 0:30 1:0.35 2:70 5:1 8:1 12:1185732 20:28 21:17 22:5 23:2021
94 0:9 1:0.53 2:70 5:1 8:1 12:1185732 18:1 20:44 21:11 22:11 23:2021
127 0:42 1:0.49 2:39 4:1 8:1 12:1185732 18:1 20:18 21:24 22:10 23:2021
250 0:9 1:0.35 2:50 6:1 8:1 12:1185732 20:44 21:11 22:8 23:2021
44 0:8 1:0.49 2:39 6:1 8:1 12:1185732 18:1 20:20 21:14 22:1 23:2021
46 0:42 1:0.49 2:39 3:1 8:1 12:1185732 18:1 20:18 21:25 22:10 23:2021
74 0:42 1:0.5 2:53 3:1 8:1 12:1185732 18:1 20:18 21:17 22:12 23:2021
106 0:9 1:0.52 2:68 5:1 8:1 12:1185732 18:1 20:44 21:10 22:12 23:2021
250 0:42 1:0.4 2:40 5:1 8:1 12:1185732 19:1 20:18 21:17 22:10 23:2021
187 0:30 1:0.42 2:33 4:1 8:1 12:1185732 19:1 20:28 21:18 22:4 23:2021
200 0:9 1:0.35 2:60 8:1 12:1185732 20:44 21:10 22:9 23:2021
85 0:8 1:0.4 2:25 7:1 8:1 12:1185732 19:1 20:20 21:12 22:2 23:2021
98 0:30 1:0.42 2:51 7:1 8:1 12:1185732 18:1 20:28 21:17 22:5 23:2021
100 0:9 1:0.55 2:55 3:1 8:1 12:1185732 18:1 20:44 21:10 22:12 23:2021
250 0:30 1:0.3 2:40 7:1 8:1 12:1185732 20:28 21:18 22:4 23:2021
400 0:9 1:0.4 2:65 5:1 8:1 12:1185732 20:44 21:11 22:8 23:2021
101 0:30 1:0.34 2:42 7:1 8:1 12:1185732 19:1 20:28 21:17 22:5 23:2021
158 0:42 1:0.47 2:54 4:1 8:1 12:1185732 18:1 20:18 21:11 22:11 23:2021
104 0:8 1:0.4299999999999999 2:34 5:1 8:1 12:1185732 19:1 20:20 21:14 22:1 23:2021
225 0:8 1:0.3 2:70 5:1 8:1 12:1185732 20:20 21:15 22:10 23:2021
56 0:30 1:0.42 2:53 6:1 8:1 12:1185732 18:1 20:28 21:17 22:9 23:2021
186 0:9 1:0.48 2:48 4:1 8:1 12:1185732 19:1 20:44 21:10 22:12 23:2021
525 0:9 1:0.45 2:45 4:1 8:1 12:1185732 20:44 21:11 22:4 23:2021
53 0:30 1:0.45 2:57 8:1 12:1185732 18:1 20:28 21:18 22:4 23:2021
56 0:9 1:0.44 2:59 8:1 12:1185732 18:1 20:44 21:21 22:1 23:2021
91 0:42 1:0.54 2:54 5:1 8:1 12:1185732 18:1 20:18 21:26 22:12 23:2021
125 0:42 1:0.4 2:55.00000000000001 7:1 8:1 12:1185732 19:1 20:18 21:19 22:10 23:2021
325 0:9 1:0.35 2:50 7:1 8:1 12:1185732 20:44 21:12 22:6 23:2021
52 0:9 1:0.49 2:45 6:1 8:1 12:1185732 18:1 20:44 21:10 22:9 23:2021
325 0:9 1:0.45 2:55.00000000000001 3:1 8:1 12:1185732 20:44 21:10 22:9 23:2021
120 0:9 1:0.52 2:60 5:1 8:1 12:1185732 18:1 20:44 21:10 22:5 23:2021
60 0:42 1:0.5 2:48 3:1 8:1 12:1185732 18:1 20:18 21:6 22:11 23:2021
425 0:9 1:0.45 2:55.00000000000001 3:1 8:1 12:1185732 20:44 21:11 22:8 23:2021
98 0:8 1:0.51 2:44 5:1 8:1 12:1185732 18:1 20:20 21:14 22:1 23:2021
209 0:9 1:0.52 2:45 4:1 8:1 12:1185732 19:1 20:44 21:10 22:7 23:2021
68 0:9 1:0.47 2:35 3:1 8:1 12:1185732 19:1 20:44 21:11 22:4 23:2021
150 0:42 1:0.25 2:50 8:1 12:1185732 19:1 20:18 21:22 22:10 23:2021
133 0:9 1:0.6 2:62 4:1 8:1 12:1185732 18:1 20:44 21:12 22:10 23:2021
109 0:30 1:0.41 2:54 7:1 8:1 12:1185732 18:1 20:28 21:17 22:7 23:2021
350 0:9 1:0.35 2:50 7:1 8:1 12:1185732 20:44 21:10 22:7 23:2021
300 0:42 1:0.4 2:70 5:1 8:1 12:1185732 19:1 20:18 21:17 22:12 23:2021
83 0:8 1:0.36 2:50 7:1 8:1 12:1185732 18:1 20:20 21:14 22:11 23:2021
165 0:30 1:0.5 2:49 4:1 8:1 12:1185732 18:1 20:28 21:17 22:3 23:2021
63 0:42 1:0.51 2:37 5:1 8:1 12:1185732 18:1 20:18 21:23 22:10 23:2021
180 0:9 1:0.53 2:49 4:1 8:1 12:1185732 18:1 20:44 21:19 22:2 23:2021
84 0:42 1:0.48 2:46 3:1 8:1 12:1185732 18:1 20:18 21:18 22:11 23:2021
300 0:9 1:0.3 2:40 7:1 8:1 12:1185732 20:44 21:19 22:2 23:2021
75 0:30 1:0.43 2:52 7:1 8:1 12:1185732 18:1 20:28 21:17 22:9 23:2021
525 0:9 1:0.4 2:50 4:1 8:1 12:1185732 20:44 21:21 22:1 23:2021
94 0:9 1:0.51 2:41 3:1 8:1 12:1185732 19:1 20:44 21:10 22:5 23:2021
600 0:9 1:0.45 2:70 4:1 8:1 12:1185732 20:44 21:10 22:12 23:2021
72 0:8 1:0.47 2:33 3:1 8:1 12:1185732 19:1 20:20 21:12 22:2 23:2021
150 0:42 1:0.25 2:50 8:1 12:1185732 19:1 20:18 21:16 22:10 23:2021
225 0:42 1:0.4 2:45 7:1 8:1 12:1185732 19:1 20:18 21:23 22:12 23:2021
450 0:42 1:0.35 2:54.99999999999999 4:1 8:1 12:1185732 19:1 20:18 21:27 22:12 23:2021
200 0:30 1:0.3 2:60.00000000000001 8:1 12:1185732 20:28 21:17 22:3 23:2021
185 0:9 1:0.49 2:35 4:1 8:1 12:1185732 19:1 20:44 21:10 22:3 23:2021
96 0:9 1:0.42 2:36 6:1 8:1 12:1185732 19:1 20:44 21:10 22:7 23:2021
44 0:42 1:0.41 2:43 6:1 8:1 12:1185732 18:1 20:18 21:20 22:11 23:2021
113 0:8 1:0.43 2:62 4:1 8:1 12:1185732 18:1 20:20 21:14 22:11 23:2021
575 0:8 1:0.45 2:45 4:1 8:1 12:1185732 20:20 21:12 22:2 23:2021
120 0:8 1:0.35 2:49 4:1 8:1 12:1185732 19:1 20:20 21:14 22:11 23:2021
196 0:30 1:0.53 2:64 4:1 8:1 12:1185732 18:1 20:28 21:17 22:7 23:2021
75 0:9 1:0.51 2:45 3:1 8:1 12:1185732 18:1 20:44 21:19 22:2 23:2021
113 0:9 1:0.47 2:55 7:1 8:1 12:1185732 18:1 20:44 21:10 22:12 23:2021
193 0:30 1:0.44 2:51 4:1 8:1 12:1185732 19:1 20:28 21:17 22:9 23:2021
525 0:42 1:0.35 2:54.99999999999999 4:1 8:1 12:1185732 19:1 20:18 21:21 22:12 23:2021
100 0:42 1:0.3 2:55.00000000000001 6:1 8:1 12:1185732 19:1 20:18 21:19 22:10 23:2021
70 0:30 1:0.36 2:48 8:1 12:1185732 19:1 20:28 21:17 22:9 23:2021
149 0:30 1:0.44 2:47 3:1 8:1 12:1185732 19:1 20:28 21:17 22:7 23:2021
105 0:9 1:0.41 2:44 8:1 12:1185732 19:1 20:44 21:12 22:6 23:2021
80 0:9 1:0.5 2:36 3:1 8:1 12:1185732 19:1 20:44 21:10 22:3 23:2021
75 0:42 1:0.25 2:50 8:1 12:1185732 19:1 20:18 21:3 22:11 23:2021
42 0:42 1:0.37 2:51 8:1 12:1185732 18:1 20:18 21:9 22:11 23:2021
63 0:30 1:0.43 2:64 8:1 12:1185732 18:1 20:28 21:17 22:9 23:2021
122 0:42 1:0.48 2:53 4:1 8:1 12:1185732 18:1 20:18 21:27 22:12 23:2021
175 0:42 1:0.3 2:55.00000000000001 6:1 8:1 12:1185732 19:1 20:18 21:18 22:11 23:2021
51 0:9 1:0.48 2:66 8:1 12:1185732 18:1 20:44 21:12 22:10 23:2021
113 0:30 1:0.35 2:39 7:1 8:1 12:1185732 19:1 20:28 21:18 22:8 23:2021
96 0:30 1:0.33 2:41 8:1 12:1185732 19:1 20:28 21:19 22:2 23:2021
69 0:30 1:0.51 2:49 3:1 8:1 12:1185732 18:1 20:28 21:17 22:3 23:2021
275 0:42 1:0.4 2:60 5:1 8:1 12:1185732 19:1 20:18 21:10 22:11 23:2021
51 0:42 1:0.42 2:41 6:1 8:1 12:1185732 18:1 20:18 21:14 22:11 23:2021
90 0:9 1:0.49 2:46 6:1 8:1 12:1185732 18:1 20:44 21:10 22:7 23:2021
66 0:9 1:0.4 2:35 6:1 8:1 12:1185732 19:1 20:44 21:10 22:9 23:2021
80 0:9 1:0.5 2:67 8:1 12:1185732 18:1 20:44 21:11 22:11 23:2021
109 0:9 1:0.37 2:33 7:1 8:1 12:1185732 19:1 20:44 21:10 22:7 23:2021
475 0:42 1:0.35 2:65 4:1 8:1 12:1185732 19:1 20:18 21:17 22:12 23:2021
375 0:9 1:0.4 2:75 5:1 8:1 12:1185732 20:44 21:11 22:11 23:2021
45 0:9 1:0.46 2:36 6:1 8:1 12:1185732 18:1 20:44 21:12 22:2 23:2021
178 0:8 1:0.35 2:51 4:1 8:1 12:1185732 19:1 20:20 21:13 22:12 23:2021
150 0:9 1:0.35 2:40 6:1 8:1 12:1185732 20:44 21:11 22:4 23:2021
91 0:9 1:0.39 2:50 8:1 12:1185732 19:1 20:44 21:11 22:11 23:2021
128 0:30 1:0.36 2:37 7:1 8:1 12:1185732 19:1 20:28 21:17 22:7 23:2021
90 0:9 1:0.4399999999999999 2:36 5:1 8:1 12:1185732 19:1 20:44 21:11 22:4 23:2021
350 0:8 1:0.25 2:55.00000000000001 7:1 8:1 12:1185732 20:20 21:13 22:12 23:2021
111 0:9 1:0.43 2:39 3:1 8:1 12:1185732 19:1 20:44 21:21 22:1 23:2021
94 0:8 1:0.6 2:42 3:1 8:1 12:1185732 18:1 20:20 21:14 22:1 23:2021
215 0:9 1:0.51 2:42 4:1 8:1 12:1185732 19:1 20:44 21:11 22:8 23:2021
38 0:42 1:0.5499999999999999 2:41 7:1 8:1 12:1185732 18:1 20:18 21:29 22:12 23:2021
225 0:42 1:0.35 2:55.00000000000001 3:1 8:1 12:1185732 19:1 20:18 21:19 22:10 23:2021
75 0:9 1:0.5 2:55 6:1 8:1 12:1185732 18:1 20:44 21:11 22:11 23:2021
375 0:30 1:0.3 2:55.00000000000001 7:1 8:1 12:1185732 19:1 20:28 21:18 22:8 23:2021
200 0:42 1:0.35 2:55.00000000000001 3:1 8:1 12:1185732 19:1 20:18 21:18 22:11 23:2021
41 0:42 1:0.37 2:54 8:1 12:1185732 18:1 20:18 21:25 22:12 23:2021
105 0:9 1:0.46 2:48 7:1 8:1 12:1185732 18:1 20:44 21:11 22:8 23:2021
39 0:9 1:0.4 2:30 6:1 8:1 12:1185732 19:1 20:44 21:10 22:3 23:2021
60 0:30 1:0.33 2:47 8:1 12:1185732 19:1 20:28 21:17 22:3 23:2021
54 0:42 1:0.36 2:60 8:1 12:1185732 18:1 20:18 21:17 22:12 23:2021
20 0:42 1:0.38 2:47 8:1 12:1185732 18:1 20:18 21:3 22:11 23:2021
275 0:8 1:0.35 2:35 7:1 8:1 12:1185732 20:20 21:12 22:2 23:2021
107 0:8 1:0.49 2:36 3:1 8:1 12:1185732 19:1 20:20 21:14 22:1 23:2021
350 0:9 1:0.35 2:50 7:1 8:1 12:1185732 20:44 21:11 22:8 23:2021
78 0:9 1:0.5499999999999999 2:59 5:1 8:1 12:1185732 18:1 20:44 21:10 22:9 23:2021
50 0:42 1:0.3 2:35 6:1 8:1 12:1185732 19:1 20:18 21:27 22:10 23:2021
135 0:30 1:0.47 2:39 3:1 8:1 12:1185732 19:1 20:28 21:18 22:8 23:2021
63 0:9 1:0.5 2:54 8:1 12:1185732 18:1 20:44 21:12 22:2 23:2021
196 0:30 1:0.51 2:60 4:1 8:1 12:1185732 18:1 20:28 21:18 22:8 23:2021
124 0:30 1:0.4 2:36 5:1 8:1 12:1185732 19:1 20:28 21:19 22:2 23:2021
98 0:30 1:0.46 2:46 5:1 8:1 12:1185732 18:1 20:28 21:18 22:4 23:2021
375 0:30 1:0.35 2:50 5:1 8:1 12:1185732 20:28 21:19 22:2 23:2021
123 0:30 1:0.51 2:56 3:1 8:1 12:1185732 18:1 20:28 21:19 22:6 23:2021
300 0:30 1:0.35 2:50 5:1 8:1 12:1185732 20:28 21:17 22:3 23:2021
105 0:8 1:0.28 2:43 6:1 8:1 12:1185732 19:1 20:20 21:13 22:12 23:2021
163 0:9 1:0.5800000000000001 2:58 4:1 8:1 12:1185732 18:1 20:44 21:12 22:6 23:2021
425 0:9 1:0.4 2:75 5:1 8:1 12:1185732 20:44 21:10 22:12 23:2021
154 0:30 1:0.52 2:59 4:1 8:1 12:1185732 18:1 20:28 21:17 22:9 23:2021
87 0:30 1:0.54 2:54 3:1 8:1 12:1185732 18:1 20:28 21:17 22:5 23:2021
275 0:9 1:0.4 2:45 5:1 8:1 12:1185732 20:44 21:10 22:3 23:2021
60 0:42 1:0.38 2:53 8:1 12:1185732 18:1 20:18 21:21 22:11 23:2021
50 0:42 1:0.55 2:36 5:1 8:1 12:1185732 18:1 20:18 21:29 22:10 23:2021
136 0:9 1:0.4299999999999999 2:44 5:1 8:1 12:1185732 19:1 20:44 21:11 22:8 23:2021
116 0:9 1:0.39 2:34 7:1 8:1 12:1185732 19:1 20:44 21:11 22:8 23:2021
65 0:9 1:0.49 2:57 8:1 12:1185732 18:1 20:44 21:11 22:8 23:2021
91 0:30 1:0.42 2:52 6:1 8:1 12:1185732 18:1 20:28 21:19 22:6 23:2021
125 0:42 1:0.3 2:45 6:1 8:1 12:1185732 19:1 20:18 21:30 22:12 23:2021
27 0:42 1:0.38 2:61 8:1 12:1185732 18:1 20:18 21:19 22:10 23:2021
250 0:30 1:0.4 2:50 3:1 8:1 12:1185732 20:28 21:18 22:4 23:2021
188 0:30 1:0.46 2:39 4:1 8:1 12:1185732 19:1 20:28 21:17 22:3 23:2021
325 0:42 1:0.4 2:60 5:1 8:1 12:1185732 19:1 20:18 21:26 22:12 23:2021
145 0:9 1:0.5 2:42 3:1 8:1 12:1185732 19:1 20:44 21:10 22:7 23:2021
96 0:9 1:0.34 2:31 7:1 8:1 12:1185732 19:1 20:44 21:19 22:2 23:2021
325 0:8 1:0.35 2:35 7:1 8:1 12:1185732 20:20 21:14 22:1 23:2021
300 0:30 1:0.3 2:40 7:1 8:1 12:1185732 20:28 21:17 22:3 23:2021
34 0:42 1:0.4 2:41 6:1 8:1 12:1185732 18:1 20:18 21:8 22:11 23:2021
85 0:9 1:0.38 2:23 7:1 8:1 12:1185732 19:1 20:44 21:10 22:3 23:2021
81 0:9 1:0.45 2:56 6:1 8:1 12:1185732 18:1 20:44 21:10 22:12 23:2021
85 0:9 1:0.42 2:40 6:1 8:1 12:1185732 19:1 20:44 21:11 22:8 23:2021
113 0:42 1:0.54 2:58 5:1 8:1 12:1185732 18:1 20:18 21:20 22:12 23:2021
300 0:9 1:0.35 2:50 6:1 8:1 12:1185732 20:44 21:10 22:7 23:2021
80 0:30 1:0.4 2:52 6:1 8:1 12:1185732 18:1 20:28 21:17 22:5 23:2021
75 0:42 1:0.3 2:35 6:1 8:1 12:1185732 19:1 20:18 21:2 22:11 23:2021
157 0:9 1:0.47 2:44 4:1 8:1 12:1185732 19:1 20:44 21:12 22:10 23:2021
81 0:9 1:0.45 2:38 7:1 8:1 12:1185732 18:1 20:44 21:21 22:1 23:2021
300 0:9 1:0.35 2:50 7:1 8:1 12:1185732 20:44 21:10 22:5 23:2021
93 0:30 1:0.43 2:40 3:1 8:1 12:1185732 19:1 20:28 21:17 22:5 23:2021
150 0:42 1:0.25 2:54.99999999999999 8:1 12:1185732 19:1 20:18 21:9 22:11 23:2021
94 0:30 1:0.43 2:60 8:1 12:1185732 18:1 20:28 21:19 22:6 23:2021
300 0:9 1:0.45 2:60.00000000000001 3:1 8:1 12:1185732 20:44 21:12 22:10 23:2021
675 0:9 1:0.45 2:60 4:1 8:1 12:1185732 20:44 21:10 22:7 23:2021
200 0:42 1:0.3 2:55.00000000000001 6:1 8:1 12:1185732 19:1 20:18 21:17 22:12 23:2021
175 0:30 1:0.3 2:60.00000000000001 8:1 12:1185732 20:28 21:18 22:4 23:2021
375 0:8 1:0.3 2:65 4:1 8:1 12:1185732 20:20 21:14 22:11 23:2021
195 0:9 1:0.49 2:47 4:1 8:1 12:1185732 19:1 20:44 21:12 22:6 23:2021
60 0:42 1:0.53 2:29 7:1 8:1 12:1185732 18:1 20:18 21:20 22:10 23:2021
66 0:9 1:0.37 2:40 7:1 8:1 12:1185732 19:1 20:44 21:12 22:10 23:2021
175 0:9 1:0.35 2:60.00000000000001 6:1 8:1 12:1185732 20:44 21:12 22:10 23:2021
200 0:42 1:0.4 2:30 7:1 8:1 12:1185732 19:1 20:18 21:26 22:10 23:2021
90 0:8 1:0.44 2:52 3:1 8:1 12:1185732 18:1 20:20 21:14 22:11 23:2021
275 0:9 1:0.35 2:60 8:1 12:1185732 20:44 21:10 22:5 23:2021
51 0:42 1:0.41 2:41 6:1 8:1 12:1185732 18:1 20:18 21:24 22:12 23:2021
225 0:9 1:0.35 2:35 7:1 8:1 12:1185732 20:44 21:11 22:4 23:2021
200 0:42 1:0.4 2:45 7:1 8:1 12:1185732 19:1 20:18 21:13 22:11 23:2021
475 0:30 1:0.35 2:70 5:1 8:1 12:1185732 20:28 21:19 22:6 23:2021
59 0:42 1:0.49 2:54 3:1 8:1 12:1185732 18:1 20:18 21:19 22:10 23:2021
85 0:9 1:0.43 2:37 3:1 8:1 12:1185732 19:1 20:44 21:19 22:2 23:2021
179 0:8 1:0.52 2:35 4:1 8:1 12:1185732 19:1 20:20 21:14 22:1 23:2021
200 0:42 1:0.25 2:65 8:1 12:1185732 19:1 20:18 21:17 22:12 23:2021
275 0:42 1:0.35 2:55.00000000000001 3:1 8:1 12:1185732 19:1 20:18 21:17 22:12 23:2021
56 0:9 1:0.5800000000000001 2:43 3:1 8:1 12:1185732 18:1 20:44 21:11 22:4 23:2021
250 0:9 1:0.35 2:50 6:1 8:1 12:1185732 20:44 21:10 22:5 23:2021
167 0:8 1:0.5600000000000001 2:41 4:1 8:1 12:1185732 18:1 20:20 21:12 22:2 23:2021
106 0:30 1:0.47 2:64 5:1 8:1 12:1185732 18:1 20:28 21:18 22:8 23:2021
96 0:9 1:0.37 2:37 7:1 8:1 12:1185732 19:1 20:44 21:10 22:5 23:2021
150 0:42 1:0.4 2:30 7:1 8:1 12:1185732 19:1 20:18 21:1 22:11 23:2021
137 0:9 1:0.5700000000000001 2:56 4:1 8:1 12:1185732 18:1 20:44 21:10 22:9 23:2021
300 0:9 1:0.35 2:50 6:1 8:1 12:1185732 20:44 21:12 22:6 23:2021
175 0:8 1:0.35 2:40 6:1 8:1 12:1185732 20:20 21:14 22:1 23:2021
101 0:9 1:0.4 2:35 5:1 8:1 12:1185732 19:1 20:44 21:21 22:1 23:2021
570 0:9 1:0.45 2:60 4:1 8:1 12:1185732 20:44 21:10 22:5 23:2021
38 0:9 1:0.49 2:36 6:1 8:1 12:1185732 18:1 20:44 21:10 22:3 23:2021
77 0:9 1:0.49 2:34 7:1 8:1 12:1185732 18:1 20:44 21:10 22:3 23:2021
175 0:9 1:0.47 2:49 5:1 8:1 12:1185732 19:1 20:44 21:10 22:7 23:2021
65 0:8 1:0.44 2:66 5:1 8:1 12:1185732 18:1 20:20 21:15 22:10 23:2021
98 0:9 1:0.48 2:46 7:1 8:1 12:1185732 18:1 20:44 21:10 22:7 23:2021
122 0:42 1:0.48 2:37 4:1 8:1 12:1185732 18:1 20:18 21:30 22:10 23:2021
203 0:30 1:0.46 2:48 4:1 8:1 12:1185732 19:1 20:28 21:18 22:8 23:2021
225 0:9 1:0.45 2:45 3:1 8:1 12:1185732 20:44 21:11 22:4 23:2021
173 0:9 1:0.43 2:34 4:1 8:1 12:1185732 19:1 20:44 21:21 22:1 23:2021
200 0:42 1:0.35 2:50 3:1 8:1 12:1185732 19:1 20:18 21:6 22:11 23:2021
163 0:30 1:0.4 2:47 5:1 8:1 12:1185732 19:1 20:28 21:17 22:7 23:2021
99 0:30 1:0.38 2:36 5:1 8:1 12:1185732 19:1 20:28 21:17 22:3 23:2021
595 0:30 1:0.4 2:65 4:1 8:1 12:1185732 20:28 21:17 22:5 23:2021
225 0:9 1:0.35 2:60 8:1 12:1185732 20:44 21:11 22:8 23:2021
350 0:8 1:0.3 2:70 5:1 8:1 12:1185732 20:20 21:14 22:11 23:2021
375 0:8 1:0.3 2:55.00000000000001 3:1 8:1 12:1185732 20:20 21:13 22:12 23:2021
83 0:8 1:0.29 2:42 6:1 8:1 12:1185732 19:1 20:20 21:14 22:11 23:2021
58 0:9 1:0.37 2:55 8:1 12:1185732 19:1 20:44 21:12 22:10 23:2021
81 0:9 1:0.47 2:45 7:1 8:1 12:1185732 18:1 20:44 21:12 22:6 23:2021
63 0:42 1:0.54 2:67 5:1 8:1 12:1185732 18:1 20:18 21:18 22:11 23:2021
152 0:8 1:0.55 2:44 4:1 8:1 12:1185732 18:1 20:20 21:14 22:1 23:2021
375 0:30 1:0.3 2:55.00000000000001 7:1 8:1 12:1185732 19:1 20:28 21:17 22:7 23:2021
56 0:42 1:0.53 2:68 5:1 8:1 12:1185732 18:1 20:18 21:19 22:10 23:2021
105 0:30 1:0.45 2:52 7:1 8:1 12:1185732 18:1 20:28 21:18 22:8 23:2021
545 0:9 1:0.45 2:45 4:1 8:1 12:1185732 20:44 21:10 22:3 23:2021
182 0:9 1:0.5700000000000001 2:54 4:1 8:1 12:1185732 18:1 20:44 21:10 22:7 23:2021
425 0:30 1:0.4 2:60.00000000000001 3:1 8:1 12:1185732 20:28 21:19 22:6 23:2021
525 0:42 1:0.35 2:54.99999999999999 4:1 8:1 12:1185732 19:1 20:18 21:11 22:11 23:2021
75 0:9 1:0.5900000000000001 2:54 3:1 8:1 12:1185732 18:1 20:44 21:12 22:10 23:2021
77 0:42 1:0.49 2:48 3:1 8:1 12:1185732 18:1 20:18 21:12 22:11 23:2021
300 0:8 1:0.25 2:55.00000000000001 6:1 8:1 12:1185732 20:20 21:13 22:12 23:2021
98 0:42 1:0.49 2:62 4:1 8:1 12:1185732 18:1 20:18 21:18 22:11 23:2021
61 0:9 1:0.37 2:46 6:1 8:1 12:1185732 19:1 20:44 21:12 22:10 23:2021
83 0:9 1:0.4 2:40 6:1 8:1 12:1185732 19:1 20:44 21:10 22:5 23:2021
90 0:9 1:0.44 2:39 7:1 8:1 12:1185732 18:1 20:44 21:19 22:2 23:2021
78 0:30 1:0.33 2:43 7:1 8:1 12:1185732 19:1 20:28 21:17 22:9 23:2021
47 0:9 1:0.49 2:51 8:1 12:1185732 18:1 20:44 21:10 22:3 23:2021
75 0:30 1:0.41 2:38 7:1 8:1 12:1185732 18:1 20:28 21:17 22:3 23:2021
91 0:8 1:0.45 2:32 7:1 8:1 12:1185732 18:1 20:20 21:14 22:1 23:2021
41 0:42 1:0.36 2:60 8:1 12:1185732 18:1 20:18 21:18 22:11 23:2021
90 0:42 1:0.47 2:49 3:1 8:1 12:1185732 18:1 20:18 21:22 22:12 23:2021
176 0:9 1:0.6 2:58 4:1 8:1 12:1185732 18:1 20:44 21:11 22:8 23:2021
295 0:8 1:0.25 2:55.00000000000001 7:1 8:1 12:1185732 20:20 21:14 22:11 23:2021
46 0:9 1:0.48 2:55 6:1 8:1 12:1185732 18:1 20:44 21:12 22:10 23:2021
68 0:8 1:0.47 2:52 8:1 12:1185732 18:1 20:20 21:14 22:1 23:2021
104 0:30 1:0.34 2:37 6:1 8:1 12:1185732 19:1 20:28 21:19 22:6 23:2021
275 0:9 1:0.35 2:35 7:1 8:1 12:1185732 20:44 21:10 22:3 23:2021
175 0:30 1:0.3 2:44.99999999999999 6:1 8:1 12:1185732 20:28 21:18 22:4 23:2021
450 0:9 1:0.4 2:65 5:1 8:1 12:1185732 20:44 21:12 22:6 23:2021
95 0:30 1:0.52 2:54 3:1 8:1 12:1185732 18:1 20:28 21:17 22:9 23:2021
132 0:9 1:0.51 2:41 3:1 8:1 12:1185732 19:1 20:44 21:10 22:12 23:2021
325 0:42 1:0.4 2:60 5:1 8:1 12:1185732 19:1 20:18 21:16 22:11 23:2021
68 0:42 1:0.5 2:41 7:1 8:1 12:1185732 18:1 20:18 21:23 22:12 23:2021
68 0:9 1:0.47 2:49 6:1 8:1 12:1185732 18:1 20:44 21:11 22:8 23:2021
175 0:9 1:0.3 2:44.99999999999999 6:1 8:1 12:1185732 20:44 21:21 22:1 23:2021
85 0:9 1:0.54 2:43 5:1 8:1 12:1185732 18:1 20:44 21:12 22:2 23:2021
90 0:9 1:0.51 2:44 5:1 8:1 12:1185732 18:1 20:44 21:11 22:4 23:2021
117 0:9 1:0.52 2:62 5:1 8:1 12:1185732 18:1 20:44 21:12 22:6 23:2021
425 0:30 1:0.35 2:70 5:1 8:1 12:1185732 19:1 20:28 21:18 22:8 23:2021
650 0:9 1:0.45 2:60 4:1 8:1 12:1185732 20:44 21:11 22:8 23:2021
175 0:9 1:0.35 2:70 8:1 12:1185732 20:44 21:12 22:10 23:2021
114 0:30 1:0.37 2:47 8:1 12:1185732 19:1 20:28 21:19 22:6 23:2021
400 0:8 1:0.3 2:70 5:1 8:1 12:1185732 20:20 21:13 22:12 23:2021
325 0:30 1:0.35 2:70 5:1 8:1 12:1185732 19:1 20:28 21:17 22:9 23:2021
80 0:9 1:0.5600000000000001 2:54 3:1 8:1 12:1185732 18:1 20:44 21:10 22:5 23:2021
154 0:9 1:0.5700000000000001 2:55 4:1 8:1 12:1185732 18:1 20:44 21:10 22:5 23:2021
36 0:42 1:0.45 2:42 6:1 8:1 12:1185732 18:1 20:18 21:30 22:12 23:2021
275 0:30 1:0.4 2:50 3:1 8:1 12:1185732 20:28 21:17 22:3 23:2021
102 0:9 1:0.4 2:38 6:1 8:1 12:1185732 19:1 20:44 21:12 22:6 23:2021
75 0:30 1:0.47 2:45 5:1 8:1 12:1185732 18:1 20:28 21:17 22:3 23:2021
600 0:9 1:0.4 2:50 4:1 8:1 12:1185732 20:44 21:19 22:2 23:2021
101 0:9 1:0.36 2:28 7:1 8:1 12:1185732 19:1 20:44 21:21 22:1 23:2021
72 0:9 1:0.42 2:40 7:1 8:1 12:1185732 19:1 20:44 21:10 22:9 23:2021
106 0:9 1:0.5900000000000001 2:53 3:1 8:1 12:1185732 18:1 20:44 21:11 22:8 23:2021
250 0:30 1:0.3 2:55.00000000000001 7:1 8:1 12:1185732 19:1 20:28 21:17 22:9 23:2021
225 0:8 1:0.45 2:45 3:1 8:1 12:1185732 20:20 21:12 22:2 23:2021
300 0:30 1:0.3 2:65 8:1 12:1185732 20:28 21:17 22:5 23:2021
175 0:42 1:0.4 2:45 7:1 8:1 12:1185732 19:1 20:18 21:7 22:11 23:2021
105 0:8 1:0.4 2:53 3:1 8:1 12:1185732 18:1 20:20 21:13 22:12 23:2021
300 0:8 1:0.3 2:55.00000000000001 3:1 8:1 12:1185732 20:20 21:14 22:11 23:2021
150 0:8 1:0.41 2:64 4:1 8:1 12:1185732 18:1 20:20 21:13 22:12 23:2021
53 0:8 1:0.39 2:29 6:1 8:1 12:1185732 19:1 20:20 21:14 22:1 23:2021
175 0:9 1:0.35 2:55.00000000000001 8:1 12:1185732 20:44 21:10 22:3 23:2021
72 0:30 1:0.42 2:51 6:1 8:1 12:1185732 18:1 20:28 21:18 22:8 23:2021
250 0:8 1:0.25 2:65 8:1 12:1185732 20:20 21:14 22:11 23:2021
225 0:8 1:0.35 2:55.00000000000001 8:1 12:1185732 20:20 21:14 22:1 23:2021
44 0:9 1:0.5 2:36 6:1 8:1 12:1185732 18:1 20:44 21:11 22:4 23:2021
49 0:30 1:0.41 2:44 6:1 8:1 12:1185732 18:1 20:28 21:18 22:4 23:2021
450 0:30 1:0.4 2:60.00000000000001 3:1 8:1 12:1185732 19:1 20:28 21:18 22:8 23:2021
200 0:42 1:0.4 2:30 7:1 8:1 12:1185732 19:1 20:18 21:20 22:10 23:2021
300 0:9 1:0.35 2:60.00000000000001 6:1 8:1 12:1185732 20:44 21:11 22:11 23:2021
500 0:42 1:0.35 2:40 4:1 8:1 12:1185732 19:1 20:18 21:18 22:10 23:2021
68 0:9 1:0.37 2:48 8:1 12:1185732 19:1 20:44 21:10 22:9 23:2021
177 0:9 1:0.51 2:48 4:1 8:1 12:1185732 19:1 20:44 21:10 22:5 23:2021
196 0:30 1:0.43 2:47 4:1 8:1 12:1185732 19:1 20:28 21:17 22:5 23:2021
