360 0:35 1:0.62 2:56 4:1 8:1 12:1185732 16:1 18:1 20:31 21:19 22:4 23:2020
350 0:35 1:0.33 2:43 3:1 8:1 12:1185732 16:1 19:1 20:31 21:20 22:4 23:2020
975 0:35 1:0.3 2:55.00000000000001 3:1 8:1 12:1185732 16:1 19:1 20:31 21:28 22:4 23:2020
420 0:35 1:0.5600000000000001 2:48 4:1 8:1 12:1185732 16:1 19:1 20:31 21:3 22:5 23:2020
270 0:35 1:0.37 2:41 6:1 8:1 12:1185732 16:1 19:1 20:31 21:30 22:4 23:2020
1200 0:35 1:0.5 2:60 4:1 8:1 12:1185732 16:1 19:1 20:31 21:19 22:4 23:2020
1200 0:35 1:0.5 2:65 4:1 8:1 12:1185732 16:1 19:1 20:31 21:3 22:5 23:2020
315 0:35 1:0.37 2:44 8:1 12:1185732 16:1 19:1 20:31 21:23 22:4 23:2020
300 0:35 1:0.42 2:51 3:1 8:1 12:1185732 16:1 18:1 20:31 21:4 22:5 23:2020
1000 0:35 1:0.25 2:65 5:1 8:1 12:1185732 16:1 19:1 20:31 21:24 22:4 23:2020
254 0:35 1:0.42 2:64 8:1 12:1185732 16:1 18:1 20:31 21:1 22:5 23:2020
340 0:35 1:0.3 2:48 5:1 8:1 12:1185732 16:1 19:1 20:31 21:18 22:7 23:2020
263 0:35 1:0.37 2:66 5:1 8:1 12:1185732 16:1 18:1 20:31 21:2 22:5 23:2020
350 0:35 1:0.3 2:45 5:1 8:1 12:1185732 16:1 19:1 20:31 21:24 22:4 23:2020
900 0:35 1:0.3 2:60 8:1 12:1185732 16:1 19:1 20:31 21:17 22:4 23:2020
299 0:35 1:0.6 2:60 4:1 8:1 12:1185732 16:1 18:1 20:31 21:27 22:4 23:2020
289 0:35 1:0.32 2:51 8:1 12:1185732 16:1 19:1 20:31 21:25 22:4 23:2020
875 0:35 1:0.3 2:65 8:1 12:1185732 16:1 19:1 20:31 21:1 22:5 23:2020
279 0:35 1:0.33 2:43 8:1 12:1185732 16:1 19:1 20:31 21:17 22:4 23:2020
285 0:35 1:0.47 2:54 7:1 8:1 12:1185732 16:1 18:1 20:31 21:5 22:5 23:2020
1000 0:35 1:0.25 2:70 5:1 8:1 12:1185732 16:1 19:1 20:31 21:26 22:4 23:2020
900 0:35 1:0.35 2:50 6:1 8:1 12:1185732 16:1 19:1 20:31 21:22 22:4 23:2020
1000 0:35 1:0.25 2:70 5:1 8:1 12:1185732 16:1 19:1 20:31 21:18 22:7 23:2020
1150 0:35 1:0.5 2:65 4:1 8:1 12:1185732 16:1 19:1 20:31 21:27 22:4 23:2020
270 0:35 1:0.45 2:54 8:1 12:1185732 16:1 18:1 20:31 21:17 22:4 23:2020
900 0:35 1:0.35 2:55.00000000000001 6:1 8:1 12:1185732 16:1 19:1 20:31 21:6 22:5 23:2020
306 0:35 1:0.4 2:41 6:1 8:1 12:1185732 16:1 19:1 20:31 21:6 22:5 23:2020
252 0:35 1:0.46 2:47 6:1 8:1 12:1185732 16:1 18:1 20:31 21:22 22:4 23:2020
875 0:35 1:0.3 2:65 8:1 12:1185732 16:1 19:1 20:31 21:25 22:4 23:2020
280 0:35 1:0.36 2:47 8:1 12:1185732 16:1 19:1 20:31 21:1 22:5 23:2020
333 0:35 1:0.4 2:42 7:1 8:1 12:1185732 16:1 19:1 20:31 21:5 22:5 23:2020
315 0:35 1:0.39 2:36 7:1 8:1 12:1185732 16:1 19:1 20:31 21:21 22:4 23:2020
925 0:35 1:0.35 2:50 7:1 8:1 12:1185732 16:1 19:1 20:31 21:21 22:4 23:2020
273 0:35 1:0.43 2:53 3:1 8:1 12:1185732 16:1 18:1 20:31 21:28 22:4 23:2020
