131 0:4 1:0.52 2:49 4:1 8:1 12:1185732 13:1 18:1 20:19 21:20 22:7 23:2021
325 0:30 1:0.4 2:65.00000000000001 3:1 8:1 12:1185732 13:1 19:1 20:28 21:18 22:11 23:2021
64 0:40 1:0.27 2:39 5:1 8:1 12:1185732 13:1 19:1 20:37 21:14 22:11 23:2021
550 0:43 1:0.35 2:49.99999999999999 4:1 8:1 12:1185732 13:1 20:38 21:8 22:6 23:2021
62 0:40 1:0.46 2:43 6:1 8:1 12:1185732 13:1 19:1 20:37 21:6 22:12 23:2021
317 0:35 1:0.64 2:54 4:1 8:1 12:1185732 13:1 18:1 20:31 21:6 22:2 23:2020
900 0:35 1:0.3 2:60 8:1 12:1185732 13:1 19:1 20:31 21:8 22:3 23:2020
116 0:43 1:0.5 2:50 5:1 8:1 12:1185732 13:1 18:1 20:38 21:6 22:7 23:2021
75 0:43 1:0.3 2:60 8:1 12:1185732 13:1 20:38 21:8 22:10 23:2021
56 0:40 1:0.39 2:46 8:1 12:1185732 13:1 19:1 20:37 21:31 22:12 23:2021
150 0:40 1:0.35 2:50 3:1 8:1 12:1185732 13:1 19:1 20:37 21:4 22:11 23:2021
26 0:40 1:0.37 2:45 8:1 12:1185732 13:1 19:1 20:37 21:13 22:11 23:2021
39 0:30 1:0.37 2:49 6:1 8:1 12:1185732 13:1 18:1 20:28 21:24 22:1 23:2021
296 0:35 1:0.35 2:37 3:1 8:1 12:1185732 13:1 19:1 20:31 21:7 22:2 23:2020
39 0:40 1:0.37 2:51 8:1 12:1185732 13:1 19:1 20:37 21:19 22:11 23:2021
63 0:20 1:0.45 2:34 3:1 8:1 12:1185732 13:1 18:1 20:6 21:10 22:1 23:2021
44 0:40 1:0.4 2:32 3:1 8:1 12:1185732 13:1 19:1 20:37 21:29 22:10 23:2021
179 0:40 1:0.5800000000000001 2:51 4:1 8:1 12:1185732 13:1 19:1 20:37 21:3 22:12 23:2021
1250 0:35 1:0.5 2:50 4:1 8:1 12:1185732 13:1 20:31 21:7 22:1 23:2020
88 0:20 1:0.45 2:50 7:1 8:1 12:1185732 13:1 18:1 20:6 21:3 22:12 23:2021
925 0:35 1:0.3 2:60 8:1 12:1185732 13:1 19:1 20:31 21:14 22:3 23:2020
260 0:35 1:0.42 2:47 3:1 8:1 12:1185732 13:1 18:1 20:31 21:2 22:1 23:2020
300 0:30 1:0.35 2:80 5:1 8:1 12:1185732 13:1 19:1 20:28 21:19 22:10 23:2021
144 0:30 1:0.4 2:61 5:1 8:1 12:1185732 13:1 19:1 20:28 21:17 22:12 23:2021
261 0:35 1:0.44 2:46 3:1 8:1 12:1185732 13:1 18:1 20:31 21:8 22:1 23:2020
225 0:20 1:0.4 2:35 5:1 8:1 12:1185732 13:1 20:6 21:10 22:1 23:2021
85 0:30 1:0.4 2:64 6:1 8:1 12:1185732 13:1 18:1 20:28 21:18 22:11 23:2021
75 0:10 1:0.35 2:30 6:1 8:1 12:1185732 13:1 20:47 21:24 22:1 23:2021
475 0:51 1:0.35 2:60 4:1 8:1 12:1185732 13:1 20:7 21:15 22:10 23:2021
825 0:35 1:0.35 2:45 6:1 8:1 12:1185732 13:1 19:1 20:31 21:3 22:2 23:2020
63 0:10 1:0.46 2:24 7:1 8:1 12:1185732 13:1 18:1 20:47 21:24 22:1 23:2021
400 0:30 1:0.35 2:80 5:1 8:1 12:1185732 13:1 19:1 20:28 21:18 22:11 23:2021
400 0:10 1:0.4 2:70 5:1 8:1 12:1185732 13:1 20:47 21:17 22:11 23:2021
340 0:35 1:0.34 2:41 3:1 8:1 12:1185732 13:1 19:1 20:31 21:5 22:3 23:2020
125 0:43 1:0.4 2:25.00000000000001 7:1 8:1 12:1185732 13:1 20:38 21:7 22:4 23:2021
238 0:35 1:0.35 2:45 5:1 8:1 12:1185732 13:1 18:1 20:31 21:30 22:1 23:2020
48 0:40 1:0.42 2:43 8:1 12:1185732 13:1 19:1 20:37 21:25 22:11 23:2021
950 0:35 1:0.35 2:40 7:1 8:1 12:1185732 13:1 19:1 20:31 21:27 22:1 23:2020
475 0:40 1:0.5 2:65 4:1 8:1 12:1185732 13:1 19:1 20:37 21:9 22:12 23:2021
336 0:35 1:0.61 2:47 4:1 8:1 12:1185732 13:1 18:1 20:31 21:1 22:1 23:2020
325 0:51 1:0.3 2:54.99999999999999 8:1 12:1185732 13:1 20:7 21:13 22:7 23:2021
300 0:10 1:0.4 2:65 8:1 12:1185732 13:1 20:47 21:17 22:11 23:2021
113 0:43 1:0.41 2:37 4:1 8:1 12:1185732 13:1 19:1 20:38 21:8 22:10 23:2021
169 0:30 1:0.55 2:71 4:1 8:1 12:1185732 13:1 18:1 20:28 21:17 22:12 23:2021
8 0:40 1:0.4399999999999999 2:32 6:1 8:1 12:1185732 13:1 19:1 20:37 21:6 22:11 23:2021
100 0:43 1:0.4 2:50 7:1 8:1 12:1185732 13:1 20:38 21:8 22:10 23:2021
27 0:43 1:0.41 2:47 8:1 12:1185732 13:1 18:1 20:38 21:6 22:9 23:2021
250 0:40 1:0.3 2:70 5:1 8:1 12:1185732 13:1 19:1 20:37 21:20 22:11 23:2021
173 0:20 1:0.42 2:45 4:1 8:1 12:1185732 13:1 19:1 20:6 21:3 22:12 23:2021
53 0:40 1:0.47 2:43 6:1 8:1 12:1185732 13:1 19:1 20:37 21:24 22:11 23:2021
140 0:40 1:0.5700000000000001 2:35 4:1 8:1 12:1185732 13:1 19:1 20:37 21:9 22:11 23:2021
47 0:4 1:0.55 2:32 6:1 8:1 12:1185732 13:1 18:1 20:19 21:17 22:1 23:2021
239 0:35 1:0.49 2:41 6:1 8:1 12:1185732 13:1 18:1 20:31 21:3 22:2 23:2020
200 0:43 1:0.3 2:49.99999999999999 8:1 12:1185732 13:1 20:38 21:8 22:6 23:2021
116 0:30 1:0.47 2:78 5:1 8:1 12:1185732 13:1 18:1 20:28 21:18 22:11 23:2021
333 0:35 1:0.27 2:39 5:1 8:1 12:1185732 13:1 19:1 20:31 21:5 22:2 23:2020
354 0:35 1:0.63 2:46 4:1 8:1 12:1185732 13:1 18:1 20:31 21:25 22:1 23:2020
225 0:40 1:0.4 2:60.00000000000001 7:1 8:1 12:1185732 13:1 19:1 20:37 21:29 22:12 23:2021
150 0:43 1:0.4 2:40 6:1 8:1 12:1185732 13:1 20:38 21:7 22:8 23:2021
65 0:43 1:0.55 2:39 7:1 8:1 12:1185732 13:1 18:1 20:38 21:8 22:6 23:2021
175 0:40 1:0.4 2:40 7:1 8:1 12:1185732 13:1 19:1 20:37 21:5 22:11 23:2021
225 0:43 1:0.4 2:40 7:1 8:1 12:1185732 13:1 20:38 21:8 22:6 23:2021
156 0:40 1:0.5800000000000001 2:39 4:1 8:1 12:1185732 13:1 19:1 20:37 21:3 22:11 23:2021
300 0:51 1:0.4 2:45 7:1 8:1 12:1185732 13:1 20:7 21:13 22:5 23:2021
445 0:40 1:0.55 2:50 4:1 8:1 12:1185732 13:1 19:1 20:37 21:3 22:11 23:2021
61 0:4 1:0.46 2:37 3:1 8:1 12:1185732 13:1 18:1 20:19 21:15 22:2 23:2021
21 0:4 1:0.5 2:49 6:1 8:1 12:1185732 13:1 18:1 20:19 21:22 22:10 23:2021
900 0:35 1:0.35 2:50 6:1 8:1 12:1185732 13:1 19:1 20:31 21:13 22:3 23:2020
200 0:43 1:0.4 2:40 6:1 8:1 12:1185732 13:1 20:38 21:6 22:7 23:2021
81 0:4 1:0.5 2:38 3:1 8:1 12:1185732 13:1 18:1 20:19 21:17 22:1 23:2021
450 0:30 1:0.35 2:80 5:1 8:1 12:1185732 13:1 19:1 20:28 21:17 22:12 23:2021
925 0:35 1:0.35 2:50 6:1 8:1 12:1185732 13:1 19:1 20:31 21:31 22:3 23:2020
91 0:40 1:0.34 2:40 3:1 8:1 12:1185732 13:1 19:1 20:37 21:10 22:12 23:2021
650 0:51 1:0.35 2:54.99999999999999 4:1 8:1 12:1185732 13:1 20:7 21:14 22:8 23:2021
234 0:35 1:0.41 2:47 3:1 8:1 12:1185732 13:1 18:1 20:31 21:1 22:2 23:2020
400 0:51 1:0.4 2:60 5:1 8:1 12:1185732 13:1 20:7 21:13 22:5 23:2021
125 0:20 1:0.3 2:45 8:1 12:1185732 13:1 20:6 21:10 22:1 23:2021
350 0:10 1:0.4 2:55.00000000000001 6:1 8:1 12:1185732 13:1 20:47 21:16 22:12 23:2021
99 0:20 1:0.35 2:42 8:1 12:1185732 13:1 19:1 20:6 21:3 22:12 23:2021
275 0:20 1:0.35 2:70 5:1 8:1 12:1185732 13:1 20:6 21:5 22:10 23:2021
275 0:4 1:0.4 2:30 7:1 8:1 12:1185732 13:1 20:19 21:15 22:2 23:2021
225 0:40 1:0.25 2:60 5:1 8:1 12:1185732 13:1 19:1 20:37 21:14 22:12 23:2021
250 0:4 1:0.35 2:50 3:1 8:1 12:1185732 13:1 20:19 21:20 22:12 23:2021
1200 0:35 1:0.5 2:50 4:1 8:1 12:1185732 13:1 19:1 20:31 21:31 22:1 23:2020
144 0:4 1:0.5 2:39 4:1 8:1 12:1185732 13:1 18:1 20:19 21:15 22:2 23:2021
20 0:10 1:0.5 2:28 6:1 8:1 12:1185732 13:1 18:1 20:47 21:24 22:1 23:2021
91 0:10 1:0.55 2:38 6:1 8:1 12:1185732 13:1 18:1 20:47 21:17 22:11 23:2021
1100 0:35 1:0.25 2:65 5:1 8:1 12:1185732 13:1 19:1 20:31 21:15 22:3 23:2020
91 0:43 1:0.47 2:42 3:1 8:1 12:1185732 13:1 18:1 20:38 21:7 22:8 23:2021
102 0:40 1:0.42 2:44 3:1 8:1 12:1185732 13:1 19:1 20:37 21:4 22:12 23:2021
98 0:40 1:0.42 2:64 5:1 8:1 12:1185732 13:1 18:1 20:37 21:2 22:12 23:2021
84 0:51 1:0.54 2:58 5:1 8:1 12:1185732 13:1 18:1 20:7 21:13 22:9 23:2021
200 0:30 1:0.3 2:65.00000000000001 7:1 8:1 12:1185732 13:1 19:1 20:28 21:19 22:10 23:2021
175 0:40 1:0.4 2:35 7:1 8:1 12:1185732 13:1 19:1 20:37 21:30 22:10 23:2021
288 0:35 1:0.34 2:45 8:1 12:1185732 13:1 19:1 20:31 21:8 22:3 23:2020
1000 0:35 1:0.25 2:50 5:1 8:1 12:1185732 13:1 20:31 21:6 22:1 23:2020
850 0:35 1:0.3 2:60 8:1 12:1185732 13:1 19:1 20:31 21:29 22:1 23:2020
450 0:10 1:0.4 2:55.00000000000001 3:1 8:1 12:1185732 13:1 20:47 21:16 22:12 23:2021
78 0:20 1:0.45 2:60 8:1 12:1185732 13:1 18:1 20:6 21:3 22:12 23:2021
250 0:40 1:0.35 2:60.00000000000001 3:1 8:1 12:1185732 13:1 19:1 20:37 21:22 22:11 23:2021
225 0:51 1:0.4 2:30 7:1 8:1 12:1185732 13:1 20:7 21:14 22:4 23:2021
68 0:40 1:0.32 2:35 3:1 8:1 12:1185732 13:1 19:1 20:37 21:16 22:12 23:2021
61 0:40 1:0.4 2:55 5:1 8:1 12:1185732 13:1 18:1 20:37 21:14 22:12 23:2021
175 0:40 1:0.4 2:55.00000000000001 7:1 8:1 12:1185732 13:1 19:1 20:37 21:23 22:11 23:2021
150 0:51 1:0.4 2:35 6:1 8:1 12:1185732 13:1 20:7 21:14 22:4 23:2021
200 0:51 1:0.3 2:54.99999999999999 8:1 12:1185732 13:1 20:7 21:13 22:9 23:2021
70 0:30 1:0.42 2:42 3:1 8:1 12:1185732 13:1 19:1 20:28 21:22 22:2 23:2021
59 0:51 1:0.55 2:27 7:1 8:1 12:1185732 13:1 18:1 20:7 21:14 22:4 23:2021
545 0:51 1:0.35 2:40 4:1 8:1 12:1185732 13:1 20:7 21:13 22:3 23:2021
122 0:10 1:0.55 2:68 5:1 8:1 12:1185732 13:1 18:1 20:47 21:16 22:12 23:2021
69 0:51 1:0.54 2:29 7:1 8:1 12:1185732 13:1 18:1 20:7 21:13 22:3 23:2021
1025 0:35 1:0.3 2:55.00000000000001 3:1 8:1 12:1185732 13:1 19:1 20:31 21:17 22:3 23:2020
1250 0:35 1:0.5 2:60 4:1 8:1 12:1185732 13:1 19:1 20:31 21:16 22:3 23:2020
31 0:51 1:0.53 2:32 6:1 8:1 12:1185732 13:1 18:1 20:7 21:13 22:3 23:2021
175 0:51 1:0.3 2:65 8:1 12:1185732 13:1 20:7 21:15 22:10 23:2021
230 0:35 1:0.42 2:59 8:1 12:1185732 13:1 18:1 20:31 21:29 22:1 23:2020
53 0:40 1:0.45 2:40 6:1 8:1 12:1185732 13:1 19:1 20:37 21:30 22:12 23:2021
145 0:40 1:0.67 2:60 4:1 8:1 12:1185732 13:1 18:1 20:37 21:27 22:11 23:2021
297 0:35 1:0.38 2:38 6:1 8:1 12:1185732 13:1 19:1 20:31 21:7 22:3 23:2020
75 0:43 1:0.55 2:38 7:1 8:1 12:1185732 13:1 18:1 20:38 21:7 22:8 23:2021
550 0:43 1:0.35 2:49.99999999999999 4:1 8:1 12:1185732 13:1 20:38 21:7 22:8 23:2021
31 0:40 1:0.42 2:59 8:1 12:1185732 13:1 18:1 20:37 21:19 22:11 23:2021
27 0:40 1:0.43 2:56 8:1 12:1185732 13:1 18:1 20:37 21:19 22:12 23:2021
63 0:40 1:0.39 2:60 5:1 8:1 12:1185732 13:1 18:1 20:37 21:20 22:12 23:2021
150 0:20 1:0.51 2:59 4:1 8:1 12:1185732 13:1 18:1 20:6 21:3 22:12 23:2021
206 0:35 1:0.49 2:44 6:1 8:1 12:1185732 13:1 18:1 20:31 21:22 22:1 23:2020
575 0:43 1:0.35 2:49.99999999999999 4:1 8:1 12:1185732 13:1 20:38 21:6 22:7 23:2021
50 0:43 1:0.3 2:45 8:1 12:1185732 13:1 20:38 21:7 22:4 23:2021
75 0:40 1:0.35 2:45 6:1 8:1 12:1185732 13:1 19:1 20:37 21:12 22:11 23:2021
125 0:20 1:0.35 2:35 3:1 8:1 12:1185732 13:1 20:6 21:8 22:2 23:2021
149 0:30 1:0.43 2:59 4:1 8:1 12:1185732 13:1 19:1 20:28 21:18 22:11 23:2021
65 0:43 1:0.53 2:33 5:1 8:1 12:1185732 13:1 18:1 20:38 21:8 22:2 23:2021
1000 0:35 1:0.25 2:50 5:1 8:1 12:1185732 13:1 19:1 20:31 21:24 22:1 23:2020
125 0:40 1:0.35 2:45 3:1 8:1 12:1185732 13:1 19:1 20:37 21:29 22:10 23:2021
33 0:43 1:0.5 2:32 3:1 8:1 12:1185732 13:1 18:1 20:38 21:7 22:4 23:2021
84 0:4 1:0.45 2:53 5:1 8:1 12:1185732 13:1 18:1 20:19 21:22 22:6 23:2021
117 0:30 1:0.53 2:68 4:1 8:1 12:1185732 13:1 18:1 20:28 21:18 22:11 23:2021
300 0:20 1:0.3 2:55.00000000000001 6:1 8:1 12:1185732 13:1 20:6 21:3 22:12 23:2021
300 0:40 1:0.35 2:60.00000000000001 3:1 8:1 12:1185732 13:1 19:1 20:37 21:28 22:11 23:2021
850 0:35 1:0.35 2:50 6:1 8:1 12:1185732 13:1 19:1 20:31 21:9 22:2 23:2020
58 0:40 1:0.54 2:53 6:1 8:1 12:1185732 13:1 18:1 20:37 21:6 22:12 23:2021
96 0:30 1:0.34 2:59 8:1 12:1185732 13:1 19:1 20:28 21:18 22:11 23:2021
100 0:40 1:0.3 2:60 8:1 12:1185732 13:1 19:1 20:37 21:19 22:12 23:2021
81 0:51 1:0.52 2:41 7:1 8:1 12:1185732 13:1 18:1 20:7 21:13 22:5 23:2021
35 0:40 1:0.48 2:44 3:1 8:1 12:1185732 13:1 18:1 20:37 21:29 22:10 23:2021
925 0:35 1:0.3 2:50 3:1 8:1 12:1185732 13:1 19:1 20:31 21:26 22:1 23:2020
175 0:40 1:0.4 2:60.00000000000001 6:1 8:1 12:1185732 13:1 19:1 20:37 21:24 22:12 23:2021
119 0:20 1:0.49 2:34 4:1 8:1 12:1185732 13:1 18:1 20:6 21:8 22:2 23:2021
470 0:40 1:0.5 2:60 4:1 8:1 12:1185732 13:1 19:1 20:37 21:15 22:11 23:2021
8 0:43 1:0.47 2:20 6:1 8:1 12:1185732 13:1 19:1 20:38 21:6 22:3 23:2021
390 0:35 1:0.52 2:40 4:1 8:1 12:1185732 13:1 19:1 20:31 21:25 22:1 23:2020
114 0:30 1:0.34 2:43 6:1 8:1 12:1185732 13:1 19:1 20:28 21:18 22:11 23:2021
270 0:35 1:0.37 2:35 6:1 8:1 12:1185732 13:1 19:1 20:31 21:13 22:3 23:2020
306 0:35 1:0.35 2:43 8:1 12:1185732 13:1 19:1 20:31 21:23 22:1 23:2020
425 0:20 1:0.4 2:65 4:1 8:1 12:1185732 13:1 20:6 21:4 22:11 23:2021
252 0:35 1:0.5 2:39 7:1 8:1 12:1185732 13:1 18:1 20:31 21:2 22:2 23:2020
275 0:4 1:0.3 2:64.99999999999999 5:1 8:1 12:1185732 13:1 20:19 21:20 22:12 23:2021
320 0:35 1:0.35 2:36 3:1 8:1 12:1185732 13:1 19:1 20:31 21:2 22:1 23:2020
66 0:40 1:0.4399999999999999 2:47 7:1 8:1 12:1185732 13:1 19:1 20:37 21:23 22:12 23:2021
33 0:10 1:0.43 2:42 8:1 12:1185732 13:1 18:1 20:47 21:24 22:1 23:2021
115 0:20 1:0.46 2:34 4:1 8:1 12:1185732 13:1 18:1 20:6 21:10 22:1 23:2021
51 0:43 1:0.46 2:27 6:1 8:1 12:1185732 13:1 19:1 20:38 21:6 22:5 23:2021
313 0:35 1:0.62 2:46 4:1 8:1 12:1185732 13:1 18:1 20:31 21:7 22:1 23:2020
20 0:40 1:0.46 2:42 6:1 8:1 12:1185732 13:1 18:1 20:37 21:12 22:11 23:2021
123 0:40 1:0.36 2:49 5:1 8:1 12:1185732 13:1 19:1 20:37 21:8 22:12 23:2021
52 0:4 1:0.4 2:60 5:1 8:1 12:1185732 13:1 18:1 20:19 21:22 22:10 23:2021
243 0:35 1:0.46 2:46 6:1 8:1 12:1185732 13:1 18:1 20:31 21:13 22:3 23:2020
59 0:10 1:0.4 2:33 5:1 8:1 12:1185732 13:1 18:1 20:47 21:24 22:1 23:2021
175 0:40 1:0.35 2:70 8:1 12:1185732 13:1 19:1 20:37 21:31 22:12 23:2021
200 0:40 1:0.25 2:50 5:1 8:1 12:1185732 13:1 19:1 20:37 21:14 22:11 23:2021
115 0:30 1:0.55 2:59 3:1 8:1 12:1185732 13:1 18:1 20:28 21:17 22:12 23:2021
20 0:40 1:0.4 2:58 8:1 12:1185732 13:1 18:1 20:37 21:7 22:11 23:2021
250 0:51 1:0.35 2:40 3:1 8:1 12:1185732 13:1 20:7 21:13 22:3 23:2021
295 0:35 1:0.42 2:35 7:1 8:1 12:1185732 13:1 19:1 20:31 21:12 22:3 23:2020
104 0:40 1:0.62 2:55 4:1 8:1 12:1185732 13:1 18:1 20:37 21:15 22:12 23:2021
300 0:30 1:0.3 2:75.00000000000001 8:1 12:1185732 13:1 19:1 20:28 21:18 22:11 23:2021
445 0:43 1:0.35 2:35 4:1 8:1 12:1185732 13:1 20:38 21:6 22:3 23:2021
290 0:35 1:0.38 2:48 5:1 8:1 12:1185732 13:1 18:1 20:31 21:24 22:1 23:2020
149 0:20 1:0.42 2:23 4:1 8:1 12:1185732 13:1 19:1 20:6 21:10 22:1 23:2021
119 0:43 1:0.45 2:43 5:1 8:1 12:1185732 13:1 19:1 20:38 21:8 22:6 23:2021
54 0:30 1:0.37 2:60 8:1 12:1185732 13:1 18:1 20:28 21:24 22:1 23:2021
42 0:40 1:0.46 2:52 7:1 8:1 12:1185732 13:1 18:1 20:37 21:17 22:11 23:2021
63 0:51 1:0.5 2:41 6:1 8:1 12:1185732 13:1 18:1 20:7 21:14 22:8 23:2021
106 0:10 1:0.5 2:33 4:1 8:1 12:1185732 13:1 18:1 20:47 21:24 22:1 23:2021
87 0:20 1:0.42 2:53 6:1 8:1 12:1185732 13:1 18:1 20:6 21:3 22:12 23:2021
125 0:40 1:0.35 2:54.99999999999999 8:1 12:1185732 13:1 19:1 20:37 21:26 22:10 23:2021
900 0:35 1:0.3 2:60 8:1 12:1185732 13:1 20:31 21:5 22:1 23:2020
128 0:43 1:0.42 2:39 4:1 8:1 12:1185732 13:1 19:1 20:38 21:6 22:9 23:2021
308 0:35 1:0.41 2:53 3:1 8:1 12:1185732 13:1 18:1 20:31 21:17 22:3 23:2020
61 0:40 1:0.44 2:43 5:1 8:1 12:1185732 13:1 18:1 20:37 21:27 22:10 23:2021
350 0:40 1:0.3 2:70 5:1 8:1 12:1185732 13:1 19:1 20:37 21:8 22:12 23:2021
59 0:4 1:0.42 2:49 8:1 12:1185732 13:1 18:1 20:19 21:17 22:1 23:2021
384 0:35 1:0.52 2:34 4:1 8:1 12:1185732 13:1 19:1 20:31 21:1 22:1 23:2020
300 0:35 1:0.62 2:45 4:1 8:1 12:1185732 13:1 18:1 20:31 21:31 22:1 23:2020
300 0:40 1:0.3 2:70 5:1 8:1 12:1185732 13:1 19:1 20:37 21:26 22:11 23:2021
60 0:51 1:0.51 2:41 6:1 8:1 12:1185732 13:1 18:1 20:7 21:13 22:9 23:2021
74 0:43 1:0.42 2:32 7:1 8:1 12:1185732 13:1 19:1 20:38 21:8 22:6 23:2021
289 0:35 1:0.32 2:43 8:1 12:1185732 13:1 19:1 20:31 21:29 22:1 23:2020
102 0:10 1:0.51 2:53 6:1 8:1 12:1185732 13:1 18:1 20:47 21:16 22:12 23:2021
300 0:20 1:0.4 2:55.00000000000001 3:1 8:1 12:1185732 13:1 20:6 21:4 22:11 23:2021
175 0:4 1:0.3 2:60 8:1 12:1185732 13:1 20:19 21:20 22:12 23:2021
60 0:43 1:0.44 2:26 5:1 8:1 12:1185732 13:1 19:1 20:38 21:7 22:4 23:2021
75 0:4 1:0.35 2:50 6:1 8:1 12:1185732 13:1 20:19 21:22 22:10 23:2021
135 0:10 1:0.52 2:52 3:1 8:1 12:1185732 13:1 18:1 20:47 21:16 22:12 23:2021
54 0:40 1:0.36 2:48 5:1 8:1 12:1185732 13:1 18:1 20:37 21:14 22:11 23:2021
53 0:40 1:0.41 2:32 6:1 8:1 12:1185732 13:1 19:1 20:37 21:12 22:12 23:2021
925 0:35 1:0.3 2:55.00000000000001 3:1 8:1 12:1185732 13:1 19:1 20:31 21:7 22:2 23:2020
195 0:40 1:0.4 2:60.00000000000001 7:1 8:1 12:1185732 13:1 19:1 20:37 21:23 22:12 23:2021
475 0:10 1:0.4 2:35 4:1 8:1 12:1185732 13:1 20:47 21:22 22:2 23:2021
300 0:51 1:0.4 2:40 5:1 8:1 12:1185732 13:1 20:7 21:14 22:4 23:2021
175 0:40 1:0.3 2:60.00000000000001 3:1 8:1 12:1185732 13:1 19:1 20:37 21:16 22:11 23:2021
400 0:20 1:0.35 2:70 5:1 8:1 12:1185732 13:1 20:6 21:3 22:12 23:2021
13 0:43 1:0.53 2:29 6:1 8:1 12:1185732 13:1 18:1 20:38 21:7 22:4 23:2021
275 0:40 1:0.35 2:60.00000000000001 3:1 8:1 12:1185732 13:1 19:1 20:37 21:28 22:12 23:2021
45 0:51 1:0.55 2:33 6:1 8:1 12:1185732 13:1 18:1 20:7 21:15 22:2 23:2021
280 0:35 1:0.35 2:47 8:1 12:1185732 13:1 19:1 20:31 21:10 22:2 23:2020
225 0:30 1:0.35 2:55.00000000000001 3:1 8:1 12:1185732 13:1 19:1 20:28 21:22 22:2 23:2021
125 0:40 1:0.35 2:50 7:1 8:1 12:1185732 13:1 19:1 20:37 21:17 22:12 23:2021
300 0:30 1:0.35 2:55.00000000000001 3:1 8:1 12:1185732 13:1 19:1 20:28 21:24 22:1 23:2021
44 0:43 1:0.52 2:39 6:1 8:1 12:1185732 13:1 18:1 20:38 21:6 22:5 23:2021
275 0:51 1:0.4 2:30 7:1 8:1 12:1185732 13:1 20:7 21:13 22:3 23:2021
20 0:43 1:0.45 2:44 8:1 12:1185732 13:1 18:1 20:38 21:6 22:3 23:2021
53 0:40 1:0.47 2:41 6:1 8:1 12:1185732 13:1 18:1 20:37 21:12 22:12 23:2021
24 0:40 1:0.38 2:36 6:1 8:1 12:1185732 13:1 19:1 20:37 21:12 22:11 23:2021
83 0:30 1:0.4 2:43 7:1 8:1 12:1185732 13:1 18:1 20:28 21:22 22:2 23:2021
347 0:35 1:0.32 2:46 5:1 8:1 12:1185732 13:1 19:1 20:31 21:9 22:3 23:2020
68 0:43 1:0.38 2:38 3:1 8:1 12:1185732 13:1 19:1 20:38 21:8 22:10 23:2021
325 0:51 1:0.4 2:45 7:1 8:1 12:1185732 13:1 20:7 21:15 22:6 23:2021
1220 0:35 1:0.5 2:50 4:1 8:1 12:1185732 13:1 19:1 20:31 21:25 22:1 23:2020
101 0:20 1:0.51 2:51 3:1 8:1 12:1185732 13:1 18:1 20:6 21:3 22:12 23:2021
104 0:51 1:0.55 2:54 5:1 8:1 12:1185732 13:1 18:1 20:7 21:13 22:5 23:2021
173 0:30 1:0.4500000000000001 2:52 4:1 8:1 12:1185732 13:1 18:1 20:28 21:22 22:2 23:2021
275 0:30 1:0.25 2:45 7:1 8:1 12:1185732 13:1 19:1 20:28 21:22 22:2 23:2021
83 0:40 1:0.32 2:53 5:1 8:1 12:1185732 13:1 19:1 20:37 21:1 22:1 23:2020
75 0:51 1:0.4 2:50 8:1 12:1185732 13:1 18:1 20:7 21:15 22:6 23:2021
200 0:43 1:0.4 2:40 7:1 8:1 12:1185732 13:1 20:38 21:6 22:5 23:2021
250 0:51 1:0.4 2:45 6:1 8:1 12:1185732 13:1 20:7 21:14 22:8 23:2021
63 0:51 1:0.45 2:50 8:1 12:1185732 13:1 18:1 20:7 21:14 22:8 23:2021
22 0:40 1:0.42 2:55 8:1 12:1185732 13:1 18:1 20:37 21:13 22:11 23:2021
225 0:40 1:0.3 2:45 5:1 8:1 12:1185732 13:1 19:1 20:37 21:2 22:11 23:2021
51 0:4 1:0.41 2:54 8:1 12:1185732 13:1 18:1 20:19 21:20 22:12 23:2021
85 0:40 1:0.41 2:47 3:1 8:1 12:1185732 13:1 19:1 20:37 21:28 22:12 23:2021
125 0:43 1:0.3 2:45 8:1 12:1185732 13:1 20:38 21:8 22:2 23:2021
85 0:43 1:0.43 2:30 7:1 8:1 12:1185732 13:1 19:1 20:38 21:7 22:8 23:2021
125 0:43 1:0.3 2:49.99999999999999 8:1 12:1185732 13:1 20:38 21:7 22:8 23:2021
45 0:43 1:0.39 2:27 3:1 8:1 12:1185732 13:1 19:1 20:38 21:6 22:3 23:2021
131 0:20 1:0.45 2:37 3:1 8:1 12:1185732 13:1 19:1 20:6 21:3 22:12 23:2021
137 0:4 1:0.45 2:36 4:1 8:1 12:1185732 13:1 18:1 20:19 21:17 22:1 23:2021
166 0:40 1:0.6000000000000001 2:32 4:1 8:1 12:1185732 13:1 19:1 20:37 21:28 22:10 23:2021
38 0:40 1:0.49 2:47 3:1 8:1 12:1185732 13:1 18:1 20:37 21:4 22:11 23:2021
120 0:40 1:0.7000000000000001 2:49 4:1 8:1 12:1185732 13:1 18:1 20:37 21:3 22:11 23:2021
350 0:10 1:0.4 2:35 3:1 8:1 12:1185732 13:1 20:47 21:17 22:11 23:2021
94 0:20 1:0.42 2:46 5:1 8:1 12:1185732 13:1 19:1 20:6 21:5 22:10 23:2021
400 0:40 1:0.5 2:60 4:1 8:1 12:1185732 13:1 19:1 20:37 21:15 22:12 23:2021
47 0:40 1:0.46 2:63 8:1 12:1185732 13:1 18:1 20:37 21:31 22:12 23:2021
100 0:43 1:0.4 2:40 6:1 8:1 12:1185732 13:1 20:38 21:6 22:9 23:2021
225 0:43 1:0.4 2:35 5:1 8:1 12:1185732 13:1 20:38 21:8 22:2 23:2021
40 0:43 1:0.4 2:23 3:1 8:1 12:1185732 13:1 19:1 20:38 21:7 22:4 23:2021
50 0:43 1:0.4 2:30 6:1 8:1 12:1185732 13:1 20:38 21:7 22:4 23:2021
99 0:30 1:0.27 2:35 7:1 8:1 12:1185732 13:1 19:1 20:28 21:24 22:1 23:2021
300 0:43 1:0.4 2:54.99999999999999 5:1 8:1 12:1185732 13:1 20:38 21:7 22:8 23:2021
124 0:40 1:0.53 2:47 4:1 8:1 12:1185732 13:1 19:1 20:37 21:15 22:12 23:2021
75 0:40 1:0.3 2:60 8:1 12:1185732 13:1 19:1 20:37 21:13 22:11 23:2021
257 0:35 1:0.46 2:45 7:1 8:1 12:1185732 13:1 18:1 20:31 21:18 22:3 23:2020
60 0:43 1:0.46 2:31 6:1 8:1 12:1185732 13:1 19:1 20:38 21:6 22:7 23:2021
950 0:35 1:0.35 2:40 7:1 8:1 12:1185732 13:1 19:1 20:31 21:21 22:1 23:2020
225 0:10 1:0.35 2:35 3:1 8:1 12:1185732 13:1 20:47 21:24 22:1 23:2021
113 0:40 1:0.65 2:66 4:1 8:1 12:1185732 13:1 18:1 20:37 21:21 22:12 23:2021
116 0:30 1:0.35 2:49 6:1 8:1 12:1185732 13:1 19:1 20:28 21:17 22:12 23:2021
85 0:40 1:0.39 2:41 3:1 8:1 12:1185732 13:1 19:1 20:37 21:22 22:11 23:2021
175 0:43 1:0.35 2:45 3:1 8:1 12:1185732 13:1 20:38 21:6 22:5 23:2021
300 0:51 1:0.4 2:45 6:1 8:1 12:1185732 13:1 20:7 21:15 22:6 23:2021
84 0:10 1:0.5 2:47 5:1 8:1 12:1185732 13:1 18:1 20:47 21:17 22:10 23:2021
270 0:35 1:0.41 2:54 3:1 8:1 12:1185732 13:1 18:1 20:31 21:5 22:3 23:2020
24 0:40 1:0.34 2:41 8:1 12:1185732 13:1 19:1 20:37 21:7 22:11 23:2021
950 0:35 1:0.35 2:50 7:1 8:1 12:1185732 13:1 19:1 20:31 21:12 22:3 23:2020
950 0:35 1:0.25 2:50 5:1 8:1 12:1185732 13:1 19:1 20:31 21:5 22:2 23:2020
350 0:30 1:0.3 2:65.00000000000001 6:1 8:1 12:1185732 13:1 19:1 20:28 21:17 22:12 23:2021
216 0:35 1:0.5 2:43 6:1 8:1 12:1185732 13:1 18:1 20:31 21:28 22:1 23:2020
90 0:43 1:0.49 2:41 3:1 8:1 12:1185732 13:1 18:1 20:38 21:8 22:6 23:2021
323 0:35 1:0.38 2:32 7:1 8:1 12:1185732 13:1 19:1 20:31 21:21 22:1 23:2020
13 0:43 1:0.54 2:29 6:1 8:1 12:1185732 13:1 18:1 20:38 21:8 22:2 23:2021
81 0:43 1:0.5 2:41 3:1 8:1 12:1185732 13:1 18:1 20:38 21:6 22:7 23:2021
1000 0:35 1:0.35 2:40 7:1 8:1 12:1185732 13:1 20:31 21:3 22:1 23:2020
375 0:40 1:0.3 2:70 5:1 8:1 12:1185732 13:1 19:1 20:37 21:2 22:12 23:2021
158 0:51 1:0.46 2:36 4:1 8:1 12:1185732 13:1 18:1 20:7 21:13 22:3 23:2021
20 0:20 1:0.53 2:29 6:1 8:1 12:1185732 13:1 18:1 20:6 21:10 22:1 23:2021
38 0:43 1:0.51 2:36 7:1 8:1 12:1185732 13:1 18:1 20:38 21:6 22:9 23:2021
119 0:51 1:0.45 2:47 3:1 8:1 12:1185732 13:1 18:1 20:7 21:13 22:7 23:2021
241 0:35 1:0.47 2:47 6:1 8:1 12:1185732 13:1 18:1 20:31 21:31 22:3 23:2020
200 0:51 1:0.4 2:55.00000000000001 7:1 8:1 12:1185732 13:1 20:7 21:15 22:10 23:2021
99 0:40 1:0.39 2:45 3:1 8:1 12:1185732 13:1 19:1 20:37 21:28 22:11 23:2021
300 0:30 1:0.4 2:65.00000000000001 3:1 8:1 12:1185732 13:1 19:1 20:28 21:19 22:10 23:2021
425 0:43 1:0.35 2:49.99999999999999 4:1 8:1 12:1185732 13:1 20:38 21:6 22:9 23:2021
225 0:40 1:0.3 2:50 3:1 8:1 12:1185732 13:1 19:1 20:37 21:16 22:12 23:2021
900 0:35 1:0.35 2:40 7:1 8:1 12:1185732 13:1 19:1 20:31 21:2 22:2 23:2020
300 0:20 1:0.3 2:65 8:1 12:1185732 13:1 20:6 21:3 22:12 23:2021
41 0:4 1:0.46 2:48 6:1 8:1 12:1185732 13:1 18:1 20:19 21:21 22:11 23:2021
850 0:35 1:0.35 2:45 6:1 8:1 12:1185732 13:1 20:31 21:4 22:1 23:2020
36 0:40 1:0.45 2:50 8:1 12:1185732 13:1 18:1 20:37 21:13 22:12 23:2021
65 0:51 1:0.41 2:45 8:1 12:1185732 13:1 18:1 20:7 21:15 22:2 23:2021
90 0:30 1:0.35 2:44 7:1 8:1 12:1185732 13:1 18:1 20:28 21:24 22:1 23:2021
675 0:51 1:0.35 2:54.99999999999999 4:1 8:1 12:1185732 13:1 20:7 21:13 22:7 23:2021
55 0:40 1:0.53 2:55 7:1 8:1 12:1185732 13:1 18:1 20:37 21:23 22:12 23:2021
261 0:35 1:0.45 2:47 6:1 8:1 12:1185732 13:1 18:1 20:31 21:7 22:3 23:2020
350 0:51 1:0.4 2:45 7:1 8:1 12:1185732 13:1 20:7 21:14 22:8 23:2021
175 0:40 1:0.5700000000000001 2:49 4:1 8:1 12:1185732 13:1 19:1 20:37 21:27 22:11 23:2021
1250 0:35 1:0.5 2:60 4:1 8:1 12:1185732 13:1 19:1 20:31 21:4 22:3 23:2020
950 0:35 1:0.25 2:50 5:1 8:1 12:1185732 13:1 19:1 20:31 21:30 22:1 23:2020
65 0:4 1:0.5 2:46 3:1 8:1 12:1185732 13:1 18:1 20:19 21:20 22:12 23:2021
54 0:30 1:0.44 2:59 7:1 8:1 12:1185732 13:1 18:1 20:28 21:19 22:10 23:2021
98 0:51 1:0.53 2:39 5:1 8:1 12:1185732 13:1 18:1 20:7 21:15 22:2 23:2021
145 0:51 1:0.5 2:55 5:1 8:1 12:1185732 13:1 18:1 20:7 21:13 22:7 23:2021
900 0:35 1:0.35 2:50 6:1 8:1 12:1185732 13:1 19:1 20:31 21:7 22:3 23:2020
300 0:51 1:0.3 2:54.99999999999999 8:1 12:1185732 13:1 20:7 21:15 22:6 23:2021
33 0:20 1:0.4 2:44 8:1 12:1185732 13:1 18:1 20:6 21:10 22:1 23:2021
39 0:43 1:0.53 2:37 6:1 8:1 12:1185732 13:1 18:1 20:38 21:7 22:8 23:2021
88 0:30 1:0.44 2:62 6:1 8:1 12:1185732 13:1 18:1 20:28 21:17 22:12 23:2021
128 0:30 1:0.36 2:47 7:1 8:1 12:1185732 13:1 19:1 20:28 21:17 22:12 23:2021
142 0:51 1:0.49 2:50 4:1 8:1 12:1185732 13:1 18:1 20:7 21:13 22:9 23:2021
275 0:40 1:0.3 2:50 3:1 8:1 12:1185732 13:1 19:1 20:37 21:10 22:12 23:2021
44 0:20 1:0.36 2:34 8:1 12:1185732 13:1 19:1 20:6 21:10 22:1 23:2021
500 0:40 1:0.55 2:65 4:1 8:1 12:1185732 13:1 19:1 20:37 21:27 22:11 23:2021
200 0:43 1:0.4 2:35 5:1 8:1 12:1185732 13:1 20:38 21:7 22:4 23:2021
44 0:40 1:0.53 2:51 6:1 8:1 12:1185732 13:1 18:1 20:37 21:30 22:11 23:2021
63 0:20 1:0.55 2:24 7:1 8:1 12:1185732 13:1 18:1 20:6 21:10 22:1 23:2021
425 0:51 1:0.35 2:50 3:1 8:1 12:1185732 13:1 20:7 21:14 22:8 23:2021
150 0:43 1:0.35 2:35 3:1 8:1 12:1185732 13:1 20:38 21:6 22:3 23:2021
158 0:40 1:0.66 2:60 4:1 8:1 12:1185732 13:1 18:1 20:37 21:3 22:12 23:2021
65 0:43 1:0.52 2:37 7:1 8:1 12:1185732 13:1 18:1 20:38 21:6 22:7 23:2021
175 0:30 1:0.3 2:65.00000000000001 6:1 8:1 12:1185732 13:1 19:1 20:28 21:19 22:10 23:2021
150 0:40 1:0.52 2:44 4:1 8:1 12:1185732 13:1 19:1 20:37 21:15 22:11 23:2021
350 0:35 1:0.37 2:32 7:1 8:1 12:1185732 13:1 19:1 20:31 21:3 22:1 23:2020
575 0:20 1:0.4 2:65 4:1 8:1 12:1185732 13:1 20:6 21:3 22:12 23:2021
150 0:40 1:0.35 2:65 8:1 12:1185732 13:1 19:1 20:37 21:25 22:11 23:2021
300 0:4 1:0.3 2:54.99999999999999 5:1 8:1 12:1185732 13:1 20:19 21:22 22:6 23:2021
375 0:35 1:0.52 2:41 4:1 8:1 12:1185732 13:1 19:1 20:31 21:16 22:3 23:2020
275 0:51 1:0.4 2:40 5:1 8:1 12:1185732 13:1 20:7 21:13 22:3 23:2021
105 0:43 1:0.39 2:35 3:1 8:1 12:1185732 13:1 19:1 20:38 21:8 22:6 23:2021
51 0:30 1:0.28 2:33 6:1 8:1 12:1185732 13:1 19:1 20:28 21:24 22:1 23:2021
79 0:40 1:0.31 2:48 5:1 8:1 12:1185732 13:1 19:1 20:37 21:14 22:12 23:2021
83 0:30 1:0.27 2:29 7:1 8:1 12:1185732 13:1 19:1 20:28 21:22 22:2 23:2021
475 0:30 1:0.4 2:70 4:1 8:1 12:1185732 13:1 19:1 20:28 21:19 22:10 23:2021
20 0:4 1:0.4 2:56 8:1 12:1185732 13:1 18:1 20:19 21:22 22:10 23:2021
175 0:51 1:0.4 2:55.00000000000001 6:1 8:1 12:1185732 13:1 20:7 21:15 22:10 23:2021
1220 0:35 1:0.5 2:60 4:1 8:1 12:1185732 13:1 19:1 20:31 21:6 22:2 23:2020
125 0:40 1:0.3 2:54.99999999999999 8:1 12:1185732 13:1 19:1 20:37 21:13 22:12 23:2021
35 0:43 1:0.41 2:41 8:1 12:1185732 13:1 18:1 20:38 21:8 22:2 23:2021
75 0:40 1:0.3 2:60 8:1 12:1185732 13:1 19:1 20:37 21:7 22:11 23:2021
44 0:4 1:0.5 2:37 6:1 8:1 12:1185732 13:1 18:1 20:19 21:22 22:6 23:2021
225 0:4 1:0.35 2:40 3:1 8:1 12:1185732 13:1 20:19 21:15 22:2 23:2021
359 0:35 1:0.34 2:37 3:1 8:1 12:1185732 13:1 19:1 20:31 21:17 22:3 23:2020
259 0:35 1:0.43 2:48 3:1 8:1 12:1185732 13:1 18:1 20:31 21:26 22:1 23:2020
225 0:4 1:0.3 2:64.99999999999999 5:1 8:1 12:1185732 13:1 20:19 21:21 22:11 23:2021
100 0:40 1:0.35 2:50 6:1 8:1 12:1185732 13:1 19:1 20:37 21:18 22:12 23:2021
400 0:51 1:0.35 2:50 3:1 8:1 12:1185732 13:1 20:7 21:15 22:6 23:2021
48 0:40 1:0.39 2:51 8:1 12:1185732 13:1 19:1 20:37 21:25 22:12 23:2021
225 0:40 1:0.3 2:45 5:1 8:1 12:1185732 13:1 19:1 20:37 21:27 22:10 23:2021
63 0:43 1:0.4 2:47 8:1 12:1185732 13:1 18:1 20:38 21:6 22:7 23:2021
150 0:40 1:0.4 2:55.00000000000001 6:1 8:1 12:1185732 13:1 19:1 20:37 21:24 22:11 23:2021
184 0:30 1:0.3700000000000001 2:41 4:1 8:1 12:1185732 13:1 19:1 20:28 21:22 22:2 23:2021
44 0:40 1:0.35 2:47 5:1 8:1 12:1185732 13:1 18:1 20:37 21:8 22:11 23:2021
85 0:51 1:0.45 2:47 3:1 8:1 12:1185732 13:1 18:1 20:7 21:13 22:9 23:2021
59 0:30 1:0.46 2:53 3:1 8:1 12:1185732 13:1 18:1 20:28 21:22 22:2 23:2021
200 0:40 1:0.35 2:45 7:1 8:1 12:1185732 13:1 19:1 20:37 21:11 22:12 23:2021
175 0:4 1:0.4 2:35 6:1 8:1 12:1185732 13:1 20:19 21:17 22:1 23:2021
315 0:35 1:0.33 2:35 3:1 8:1 12:1185732 13:1 19:1 20:31 21:1 22:2 23:2020
143 0:40 1:0.6100000000000001 2:53 4:1 8:1 12:1185732 13:1 19:1 20:37 21:27 22:12 23:2021
50 0:43 1:0.4 2:30 6:1 8:1 12:1185732 13:1 20:38 21:8 22:2 23:2021
200 0:40 1:0.35 2:60.00000000000001 3:1 8:1 12:1185732 13:1 19:1 20:37 21:22 22:12 23:2021
95 0:10 1:0.5 2:61 8:1 12:1185732 13:1 18:1 20:47 21:16 22:12 23:2021
290 0:35 1:0.36 2:59 5:1 8:1 12:1185732 13:1 18:1 20:31 21:3 22:3 23:2020
259 0:35 1:0.4 2:50 3:1 8:1 12:1185732 13:1 18:1 20:31 21:7 22:2 23:2020
170 0:40 1:0.5700000000000001 2:49 4:1 8:1 12:1185732 13:1 19:1 20:37 21:21 22:11 23:2021
125 0:4 1:0.3 2:60 8:1 12:1185732 13:1 20:19 21:21 22:11 23:2021
99 0:30 1:0.44 2:44 3:1 8:1 12:1185732 13:1 19:1 20:28 21:19 22:10 23:2021
51 0:43 1:0.54 2:32 5:1 8:1 12:1185732 13:1 18:1 20:38 21:6 22:3 23:2021
475 0:20 1:0.35 2:35 4:1 8:1 12:1185732 13:1 20:6 21:8 22:2 23:2021
156 0:43 1:0.37 2:26 4:1 8:1 12:1185732 13:1 19:1 20:38 21:6 22:3 23:2021
29 0:40 1:0.47 2:51 6:1 8:1 12:1185732 13:1 18:1 20:37 21:18 22:11 23:2021
27 0:43 1:0.54 2:39 6:1 8:1 12:1185732 13:1 18:1 20:38 21:6 22:9 23:2021
90 0:51 1:0.53 2:43 6:1 8:1 12:1185732 13:1 18:1 20:7 21:13 22:7 23:2021
47 0:4 1:0.5 2:37 7:1 8:1 12:1185732 13:1 18:1 20:19 21:22 22:6 23:2021
215 0:35 1:0.42 2:56 8:1 12:1185732 13:1 18:1 20:31 21:4 22:2 23:2020
60 0:43 1:0.54 2:39 6:1 8:1 12:1185732 13:1 18:1 20:38 21:8 22:6 23:2021
72 0:40 1:0.4299999999999999 2:43 7:1 8:1 12:1185732 13:1 19:1 20:37 21:29 22:11 23:2021
176 0:10 1:0.52 2:60 4:1 8:1 12:1185732 13:1 18:1 20:47 21:16 22:12 23:2021
44 0:4 1:0.47 2:49 6:1 8:1 12:1185732 13:1 18:1 20:19 21:20 22:12 23:2021
111 0:20 1:0.5 2:60 4:1 8:1 12:1185732 13:1 18:1 20:6 21:4 22:11 23:2021
525 0:40 1:0.55 2:65 4:1 8:1 12:1185732 13:1 19:1 20:37 21:3 22:12 23:2021
125 0:40 1:0.3 2:65 8:1 12:1185732 13:1 19:1 20:37 21:19 22:11 23:2021
108 0:30 1:0.42 2:62 7:1 8:1 12:1185732 13:1 18:1 20:28 21:17 22:12 23:2021
65 0:40 1:0.44 2:71 5:1 8:1 12:1185732 13:1 18:1 20:37 21:26 22:12 23:2021
90 0:51 1:0.46 2:51 3:1 8:1 12:1185732 13:1 18:1 20:7 21:15 22:10 23:2021
32 0:43 1:0.46 2:30 6:1 8:1 12:1185732 13:1 19:1 20:38 21:6 22:9 23:2021
135 0:51 1:0.53 2:56 5:1 8:1 12:1185732 13:1 18:1 20:7 21:15 22:6 23:2021
225 0:51 1:0.35 2:40 3:1 8:1 12:1185732 13:1 20:7 21:14 22:4 23:2021
175 0:40 1:0.25 2:50 5:1 8:1 12:1185732 13:1 19:1 20:37 21:8 22:11 23:2021
225 0:51 1:0.4 2:45 7:1 8:1 12:1185732 13:1 20:7 21:13 22:9 23:2021
450 0:51 1:0.4 2:60 5:1 8:1 12:1185732 13:1 20:7 21:15 22:6 23:2021
95 0:20 1:0.47 2:67 5:1 8:1 12:1185732 13:1 18:1 20:6 21:4 22:11 23:2021
320 0:35 1:0.29 2:44 5:1 8:1 12:1185732 13:1 19:1 20:31 21:3 22:3 23:2020
200 0:4 1:0.3 2:64.99999999999999 5:1 8:1 12:1185732 13:1 20:19 21:22 22:10 23:2021
136 0:40 1:0.63 2:58 4:1 8:1 12:1185732 13:1 18:1 20:37 21:15 22:11 23:2021
61 0:51 1:0.47 2:38 3:1 8:1 12:1185732 13:1 18:1 20:7 21:14 22:4 23:2021
900 0:35 1:0.3 2:50 3:1 8:1 12:1185732 13:1 19:1 20:31 21:1 22:2 23:2020
375 0:43 1:0.35 2:54.99999999999999 4:1 8:1 12:1185732 13:1 20:38 21:8 22:10 23:2021
17 0:43 1:0.45 2:21 6:1 8:1 12:1185732 13:1 19:1 20:38 21:7 22:4 23:2021
48 0:4 1:0.5 2:49 7:1 8:1 12:1185732 13:1 18:1 20:19 21:21 22:11 23:2021
56 0:43 1:0.47 2:17 7:1 8:1 12:1185732 13:1 19:1 20:38 21:6 22:3 23:2021
46 0:43 1:0.4 2:49 8:1 12:1185732 13:1 18:1 20:38 21:6 22:5 23:2021
90 0:40 1:0.5 2:55 3:1 8:1 12:1185732 13:1 18:1 20:37 21:28 22:11 23:2021
88 0:20 1:0.36 2:44 8:1 12:1185732 13:1 19:1 20:6 21:4 22:11 23:2021
525 0:51 1:0.35 2:40 4:1 8:1 12:1185732 13:1 20:7 21:14 22:4 23:2021
34 0:40 1:0.38 2:40 6:1 8:1 12:1185732 13:1 19:1 20:37 21:18 22:12 23:2021
49 0:51 1:0.41 2:46 8:1 12:1185732 13:1 18:1 20:7 21:13 22:3 23:2021
70 0:40 1:0.34 2:32 5:1 8:1 12:1185732 13:1 19:1 20:37 21:27 22:10 23:2021
54 0:40 1:0.33 2:40 3:1 8:1 12:1185732 13:1 19:1 20:37 21:16 22:11 23:2021
143 0:43 1:0.48 2:46 4:1 8:1 12:1185732 13:1 18:1 20:38 21:7 22:8 23:2021
105 0:30 1:0.43 2:74 8:1 12:1185732 13:1 18:1 20:28 21:17 22:12 23:2021
350 0:20 1:0.3 2:55.00000000000001 7:1 8:1 12:1185732 13:1 20:6 21:3 22:12 23:2021
245 0:35 1:0.45 2:59 8:1 12:1185732 13:1 18:1 20:31 21:10 22:2 23:2020
8 0:40 1:0.51 2:43 6:1 8:1 12:1185732 13:1 18:1 20:37 21:6 22:11 23:2021
100 0:40 1:0.35 2:55.00000000000001 6:1 8:1 12:1185732 13:1 19:1 20:37 21:18 22:11 23:2021
150 0:40 1:0.3 2:50 3:1 8:1 12:1185732 13:1 19:1 20:37 21:10 22:11 23:2021
800 0:35 1:0.35 2:45 6:1 8:1 12:1185732 13:1 19:1 20:31 21:28 22:1 23:2020
138 0:43 1:0.45 2:47 4:1 8:1 12:1185732 13:1 18:1 20:38 21:8 22:6 23:2021
68 0:10 1:0.47 2:34 3:1 8:1 12:1185732 13:1 18:1 20:47 21:24 22:1 23:2021
425 0:20 1:0.35 2:35 4:1 8:1 12:1185732 13:1 20:6 21:10 22:1 23:2021
313 0:35 1:0.61 2:55 4:1 8:1 12:1185732 13:1 18:1 20:31 21:4 22:3 23:2020
23 0:43 1:0.5 2:47 6:1 8:1 12:1185732 13:1 18:1 20:38 21:8 22:10 23:2021
23 0:43 1:0.45 2:39 6:1 8:1 12:1185732 13:1 19:1 20:38 21:8 22:10 23:2021
375 0:20 1:0.4 2:55.00000000000001 3:1 8:1 12:1185732 13:1 20:6 21:3 22:12 23:2021
252 0:35 1:0.45 2:55 8:1 12:1185732 13:1 18:1 20:31 21:8 22:3 23:2020
77 0:43 1:0.47 2:27 5:1 8:1 12:1185732 13:1 19:1 20:38 21:8 22:2 23:2021
51 0:43 1:0.52 2:23 7:1 8:1 12:1185732 13:1 18:1 20:38 21:6 22:3 23:2021
315 0:35 1:0.36 2:35 3:1 8:1 12:1185732 13:1 19:1 20:31 21:26 22:1 23:2020
119 0:40 1:0.67 2:42 4:1 8:1 12:1185732 13:1 18:1 20:37 21:28 22:10 23:2021
319 0:35 1:0.6 2:59 4:1 8:1 12:1185732 13:1 18:1 20:31 21:10 22:3 23:2020
30 0:43 1:0.44 2:40 7:1 8:1 12:1185732 13:1 19:1 20:38 21:8 22:10 23:2021
42 0:4 1:0.44 2:49 8:1 12:1185732 13:1 18:1 20:19 21:22 22:6 23:2021
200 0:40 1:0.35 2:65 8:1 12:1185732 13:1 19:1 20:37 21:1 22:12 23:2021
289 0:35 1:0.37 2:31 6:1 8:1 12:1185732 13:1 19:1 20:31 21:3 22:2 23:2020
175 0:4 1:0.35 2:50 3:1 8:1 12:1185732 13:1 20:19 21:21 22:11 23:2021
69 0:4 1:0.51 2:27 7:1 8:1 12:1185732 13:1 18:1 20:19 21:15 22:2 23:2021
434 0:35 1:0.52 2:44 4:1 8:1 12:1185732 13:1 19:1 20:31 21:10 22:3 23:2020
63 0:40 1:0.42 2:47 3:1 8:1 12:1185732 13:1 18:1 20:37 21:16 22:12 23:2021
72 0:20 1:0.47 2:26 5:1 8:1 12:1185732 13:1 19:1 20:6 21:10 22:1 23:2021
175 0:30 1:0.3 2:75.00000000000001 8:1 12:1185732 13:1 19:1 20:28 21:19 22:10 23:2021
650 0:51 1:0.35 2:54.99999999999999 4:1 8:1 12:1185732 13:1 20:7 21:15 22:6 23:2021
388 0:35 1:0.52 2:33 4:1 8:1 12:1185732 13:1 19:1 20:31 21:7 22:1 23:2020
80 0:20 1:0.45 2:51 7:1 8:1 12:1185732 13:1 18:1 20:6 21:4 22:11 23:2021
425 0:43 1:0.35 2:35 4:1 8:1 12:1185732 13:1 20:38 21:7 22:4 23:2021
250 0:20 1:0.3 2:65 8:1 12:1185732 13:1 20:6 21:4 22:11 23:2021
116 0:20 1:0.39 2:52 5:1 8:1 12:1185732 13:1 19:1 20:6 21:4 22:11 23:2021
8 0:43 1:0.5 2:29 6:1 8:1 12:1185732 13:1 18:1 20:38 21:6 22:3 23:2021
950 0:35 1:0.35 2:50 7:1 8:1 12:1185732 13:1 19:1 20:31 21:18 22:3 23:2020
120 0:51 1:0.45 2:48 3:1 8:1 12:1185732 13:1 18:1 20:7 21:15 22:6 23:2021
63 0:20 1:0.54 2:33 5:1 8:1 12:1185732 13:1 18:1 20:6 21:10 22:1 23:2021
150 0:40 1:0.35 2:70 8:1 12:1185732 13:1 19:1 20:37 21:25 22:12 23:2021
24 0:20 1:0.46 2:24 6:1 8:1 12:1185732 13:1 19:1 20:6 21:10 22:1 23:2021
300 0:51 1:0.35 2:55.00000000000001 3:1 8:1 12:1185732 13:1 20:7 21:15 22:10 23:2021
200 0:43 1:0.35 2:50 3:1 8:1 12:1185732 13:1 20:38 21:8 22:10 23:2021
105 0:51 1:0.5 2:42 7:1 8:1 12:1185732 13:1 18:1 20:7 21:14 22:8 23:2021
39 0:43 1:0.43 2:29 7:1 8:1 12:1185732 13:1 19:1 20:38 21:6 22:9 23:2021
295 0:10 1:0.4 2:35 7:1 8:1 12:1185732 13:1 20:47 21:17 22:11 23:2021
350 0:43 1:0.4 2:54.99999999999999 5:1 8:1 12:1185732 13:1 20:38 21:8 22:6 23:2021
425 0:10 1:0.4 2:35 4:1 8:1 12:1185732 13:1 20:47 21:24 22:1 23:2021
