65 0:27 1:0.55 2:18 6:1 9:1 12:1197831 17:1 18:1 20:3 21:23 22:1 23:2021
300 0:37 1:0.35 2:50 9:1 12:1197831 17:1 18:1 20:35 21:20 22:8 23:2021
180 0:34 1:0.41 2:64 5:1 9:1 12:1128299 17:1 19:1 20:17 21:17 22:11 23:2021
825 0:34 1:0.4 2:85.00000000000001 3:1 9:1 12:1128299 17:1 18:1 20:17 21:17 22:8 23:2021
325 0:37 1:0.4 2:40 6:1 9:1 12:1197831 17:1 18:1 20:35 21:20 22:8 23:2021
140 0:34 1:0.4 2:44 5:1 9:1 12:1128299 17:1 19:1 20:17 21:17 22:10 23:2021
105 0:34 1:0.5 2:36 6:1 9:1 12:1128299 17:1 18:1 20:17 21:17 22:10 23:2021
85 0:34 1:0.51 2:44 6:1 9:1 12:1128299 17:1 18:1 20:17 21:18 22:5 23:2021
325 0:27 1:0.4 2:15.00000000000001 7:1 9:1 12:1197831 17:1 18:1 20:3 21:21 22:2 23:2021
83 0:37 1:0.45 2:7 7:1 9:1 12:1197831 17:1 19:1 20:35 21:19 22:3 23:2021
150 0:27 1:0.51 2:70 5:1 9:1 12:1197831 17:1 18:1 20:3 21:19 22:12 23:2021
147 0:34 1:0.47 2:53 9:1 12:1128299 17:1 19:1 20:17 21:17 22:11 23:2021
128 0:37 1:0.41 2:28 3:1 9:1 12:1197831 17:1 19:1 20:35 21:19 22:9 23:2021
224 0:34 1:0.47 2:35 3:1 9:1 12:1128299 17:1 19:1 20:17 21:17 22:11 23:2021
675 0:37 1:0.4 2:60 4:1 9:1 12:1197831 17:1 18:1 20:35 21:20 22:8 23:2021
104 0:27 1:0.53 2:29 5:1 9:1 12:1197831 17:1 18:1 20:3 21:21 22:10 23:2021
225 0:37 1:0.4 2:15 7:1 9:1 12:1197831 17:1 18:1 20:35 21:20 22:4 23:2021
450 0:37 1:0.35 2:50 3:1 9:1 12:1197831 17:1 18:1 20:35 21:19 22:7 23:2021
175 0:34 1:0.45 2:45.00000000000001 9:1 12:1128299 17:1 20:17 21:17 22:4 23:2021
400 0:27 1:0.35 2:70 9:1 12:1197831 17:1 18:1 20:3 21:19 22:12 23:2021
178 0:27 1:0.47 2:17 4:1 9:1 12:1197831 17:1 19:1 20:3 21:23 22:1 23:2021
155 0:34 1:0.5499999999999999 2:45 3:1 9:1 12:1128299 17:1 18:1 20:17 21:17 22:10 23:2021
80 0:27 1:0.5 2:33 9:1 12:1197831 17:1 18:1 20:3 21:23 22:1 23:2021
275 0:27 1:0.35 2:35 9:1 12:1197831 17:1 18:1 20:3 21:23 22:1 23:2021
175 0:22 1:0.4 2:48 6:1 9:1 12:1128299 17:1 18:1 20:42 21:4 22:11 23:2020
88 0:37 1:0.46 2:19 3:1 9:1 12:1197831 17:1 18:1 20:35 21:21 22:10 23:2021
128 0:27 1:0.44 2:41 6:1 9:1 12:1197831 17:1 19:1 20:3 21:20 22:11 23:2021
91 0:27 1:0.5 2:15 7:1 9:1 12:1197831 17:1 18:1 20:3 21:21 22:2 23:2021
475 0:34 1:0.45 2:35 5:1 9:1 12:1197831 17:1 18:1 20:17 21:5 22:1 23:2021
525 0:34 1:0.4 2:50 4:1 9:1 12:1128299 17:1 20:17 21:17 22:4 23:2021
83 0:37 1:0.42 2:12 6:1 9:1 12:1197831 17:1 19:1 20:35 21:19 22:9 23:2021
300 0:34 1:0.4 2:45.00000000000001 7:1 9:1 12:1128299 17:1 18:1 20:17 21:18 22:9 23:2021
125 0:34 1:0.51 2:46 3:1 9:1 12:1128299 17:1 18:1 20:17 21:18 22:9 23:2021
155 0:34 1:0.46 2:40 6:1 9:1 12:1128299 17:1 19:1 20:17 21:17 22:11 23:2021
250 0:37 1:0.35 2:44.99999999999999 9:1 12:1197831 17:1 18:1 20:35 21:19 22:5 23:2021
500 0:34 1:0.4 2:50.00000000000001 6:1 9:1 12:1128299 17:1 18:1 20:17 21:17 22:11 23:2021
900 0:34 1:0.4 2:90 4:1 9:1 12:1128299 17:1 18:1 20:17 21:16 22:7 23:2021
87 0:37 1:0.47 2:51 9:1 12:1197831 17:1 18:1 20:35 21:21 22:6 23:2021
176 0:34 1:0.4299999999999999 2:32 4:1 9:1 12:1128299 17:1 19:1 20:17 21:18 22:5 23:2021
210 0:34 1:0.47 2:69 7:1 9:1 12:1128299 17:1 19:1 20:17 21:16 22:7 23:2021
80 0:34 1:0.42 2:34 6:1 9:1 12:1128299 17:1 19:1 20:17 21:18 22:9 23:2021
87 0:37 1:0.5 2:38 6:1 9:1 12:1197831 17:1 18:1 20:35 21:21 22:6 23:2021
325 0:34 1:0.4 2:55.00000000000001 3:1 9:1 12:1128299 17:1 20:17 21:17 22:4 23:2021
112 0:37 1:0.46 2:14 5:1 9:1 12:1197831 17:1 19:1 20:35 21:21 22:2 23:2021
375 0:34 1:0.4 2:55.00000000000001 3:1 9:1 12:1128299 17:1 20:17 21:16 22:3 23:2021
102 0:34 1:0.38 2:46 5:1 9:1 12:1128299 17:1 19:1 20:17 21:17 22:8 23:2021
248 0:34 1:0.51 2:58 4:1 9:1 12:1128299 17:1 18:1 20:17 21:17 22:6 23:2021
300 0:34 1:0.35 2:40 5:1 9:1 12:1128299 17:1 18:1 20:17 21:18 22:9 23:2021
500 0:34 1:0.4 2:50.00000000000001 3:1 9:1 12:1128299 17:1 18:1 20:17 21:18 22:9 23:2021
112 0:37 1:0.42 2:14 3:1 9:1 12:1197831 17:1 19:1 20:35 21:21 22:10 23:2021
137 0:34 1:0.52 2:38 7:1 9:1 12:1128299 17:1 18:1 20:17 21:17 22:11 23:2021
184 0:34 1:0.45 2:34 3:1 9:1 12:1128299 17:1 19:1 20:17 21:17 22:10 23:2021
119 0:37 1:0.47 2:23 5:1 9:1 12:1197831 17:1 19:1 20:35 21:19 22:9 23:2021
525 0:37 1:0.4 2:65 5:1 9:1 12:1197831 17:1 18:1 20:35 21:19 22:7 23:2021
49 0:37 1:0.47 2:34 9:1 12:1197831 17:1 18:1 20:35 21:19 22:3 23:2021
124 0:37 1:0.52 2:50 5:1 9:1 12:1197831 17:1 18:1 20:35 21:20 22:8 23:2021
149 0:27 1:0.44 2:43 7:1 9:1 12:1197831 17:1 19:1 20:3 21:19 22:12 23:2021
168 0:34 1:0.54 2:86 6:1 9:1 12:1128299 17:1 18:1 20:17 21:16 22:7 23:2021
625 0:34 1:0.4 2:40.00000000000001 4:1 9:1 12:1128299 17:1 18:1 20:17 21:17 22:11 23:2021
250 0:37 1:0.35 2:20 3:1 9:1 12:1197831 17:1 18:1 20:35 21:19 22:3 23:2021
325 0:37 1:0.4 2:40 7:1 9:1 12:1197831 17:1 18:1 20:35 21:21 22:6 23:2021
58 0:37 1:0.46 2:15 6:1 9:1 12:1197831 17:1 19:1 20:35 21:21 22:2 23:2021
264 0:22 1:0.39 2:30 4:1 9:1 12:1128299 17:1 19:1 20:42 21:1 22:11 23:2020
575 0:34 1:0.4 2:50.00000000000001 3:1 9:1 12:1128299 17:1 18:1 20:17 21:17 22:10 23:2021
109 0:34 1:0.37 2:29 5:1 9:1 12:1128299 17:1 19:1 20:17 21:16 22:3 23:2021
156 0:37 1:0.51 2:38 4:1 9:1 12:1197831 17:1 18:1 20:35 21:21 22:6 23:2021
175 0:34 1:0.4299999999999999 2:40 3:1 9:1 12:1128299 17:1 19:1 20:17 21:18 22:9 23:2021
112 0:34 1:0.54 2:34 4:1 9:1 12:1128299 17:1 18:1 20:17 21:17 22:10 23:2021
350 0:37 1:0.35 2:60 9:1 12:1197831 17:1 18:1 20:35 21:19 22:7 23:2021
225 0:37 1:0.4 2:20.00000000000001 7:1 9:1 12:1197831 17:1 18:1 20:35 21:21 22:10 23:2021
87 0:37 1:0.45 2:39 3:1 9:1 12:1197831 17:1 18:1 20:35 21:19 22:5 23:2021
575 0:34 1:0.4 2:85 6:1 9:1 12:1128299 17:1 18:1 20:17 21:17 22:6 23:2021
275 0:37 1:0.4 2:10 7:1 9:1 12:1197831 17:1 18:1 20:35 21:19 22:3 23:2021
85 0:37 1:0.53 2:41 6:1 9:1 12:1197831 17:1 18:1 20:35 21:19 22:7 23:2021
375 0:37 1:0.4 2:45 7:1 9:1 12:1197831 17:1 18:1 20:35 21:19 22:7 23:2021
650 0:34 1:0.45 2:95 9:1 12:1128299 17:1 18:1 20:17 21:16 22:7 23:2021
105 0:37 1:0.37 2:40 9:1 12:1197831 17:1 19:1 20:35 21:20 22:8 23:2021
475 0:37 1:0.4 2:60 5:1 9:1 12:1197831 17:1 18:1 20:35 21:21 22:6 23:2021
175 0:37 1:0.4 2:20 6:1 9:1 12:1197831 17:1 18:1 20:35 21:21 22:2 23:2021
140 0:27 1:0.47 2:54 3:1 9:1 12:1197831 17:1 18:1 20:3 21:19 22:12 23:2021
400 0:34 1:0.4 2:50 7:1 9:1 12:1128299 17:1 20:17 21:18 22:5 23:2021
132 0:27 1:0.4 2:50 9:1 12:1197831 17:1 19:1 20:3 21:19 22:12 23:2021
179 0:34 1:0.46 2:29 4:1 9:1 12:1128299 17:1 19:1 20:17 21:16 22:3 23:2021
80 0:37 1:0.41 2:33 9:1 12:1197831 17:1 19:1 20:35 21:19 22:5 23:2021
400 0:27 1:0.4 2:60.00000000000001 6:1 9:1 12:1197831 17:1 18:1 20:3 21:19 22:12 23:2021
275 0:37 1:0.4 2:35 7:1 9:1 12:1197831 17:1 18:1 20:35 21:19 22:5 23:2021
221 0:34 1:0.49 2:73 9:1 12:1128299 17:1 19:1 20:17 21:16 22:7 23:2021
153 0:34 1:0.47 2:70 9:1 12:1128299 17:1 19:1 20:17 21:17 22:6 23:2021
143 0:27 1:0.5 2:24 4:1 9:1 12:1197831 17:1 18:1 20:3 21:20 22:11 23:2021
47 0:37 1:0.43 2:15 6:1 9:1 12:1197831 17:1 19:1 20:35 21:20 22:4 23:2021
88 0:37 1:0.46 2:18 5:1 9:1 12:1197831 17:1 19:1 20:35 21:19 22:3 23:2021
81 0:37 1:0.45 2:47 9:1 12:1197831 17:1 18:1 20:35 21:20 22:8 23:2021
175 0:37 1:0.35 2:35.00000000000001 9:1 12:1197831 17:1 18:1 20:35 21:19 22:3 23:2021
128 0:34 1:0.4399999999999999 2:40 3:1 9:1 12:1128299 17:1 19:1 20:17 21:18 22:5 23:2021
203 0:27 1:0.55 2:67 4:1 9:1 12:1197831 17:1 18:1 20:3 21:19 22:12 23:2021
198 0:34 1:0.45 2:62 6:1 9:1 12:1128299 17:1 19:1 20:17 21:16 22:7 23:2021
105 0:34 1:0.48 2:44 5:1 9:1 12:1128299 17:1 18:1 20:17 21:17 22:2 23:2021
73 0:34 1:0.5499999999999999 2:44 6:1 9:1 12:1128299 17:1 18:1 20:17 21:17 22:2 23:2021
94 0:37 1:0.55 2:28 5:1 9:1 12:1197831 17:1 18:1 20:35 21:20 22:4 23:2021
300 0:34 1:0.35 2:70 5:1 9:1 12:1128299 17:1 18:1 20:17 21:17 22:8 23:2021
68 0:37 1:0.38 2:22 9:1 12:1197831 17:1 19:1 20:35 21:21 22:10 23:2021
125 0:34 1:0.5 2:48 6:1 9:1 12:1128299 17:1 18:1 20:17 21:17 22:11 23:2021
78 0:37 1:0.38 2:20 9:1 12:1197831 17:1 19:1 20:35 21:19 22:9 23:2021
217 0:34 1:0.42 2:50 7:1 9:1 12:1128299 17:1 19:1 20:17 21:17 22:8 23:2021
51 0:34 1:0.6 2:48 9:1 12:1128299 17:1 18:1 20:17 21:17 22:2 23:2021
80 0:27 1:0.46 2:23 3:1 9:1 12:1197831 17:1 18:1 20:3 21:21 22:2 23:2021
91 0:34 1:0.45 2:27 6:1 9:1 12:1128299 17:1 19:1 20:17 21:17 22:4 23:2021
325 0:37 1:0.4 2:30 5:1 9:1 12:1197831 17:1 18:1 20:35 21:20 22:4 23:2021
124 0:37 1:0.51 2:55 5:1 9:1 12:1197831 17:1 18:1 20:35 21:21 22:6 23:2021
275 0:37 1:0.4 2:25 5:1 9:1 12:1197831 17:1 18:1 20:35 21:19 22:3 23:2021
83 0:27 1:0.39 2:17 3:1 9:1 12:1197831 17:1 19:1 20:3 21:21 22:2 23:2021
350 0:34 1:0.45 2:50 9:1 12:1128299 17:1 18:1 20:17 21:17 22:10 23:2021
63 0:37 1:0.51 2:14 6:1 9:1 12:1197831 17:1 18:1 20:35 21:19 22:9 23:2021
105 0:34 1:0.51 2:52 7:1 9:1 12:1128299 17:1 18:1 20:17 21:17 22:4 23:2021
625 0:22 1:0.3 2:50 6:1 9:1 12:1128299 17:1 19:1 20:42 21:4 22:11 23:2020
400 0:34 1:0.4 2:35 4:1 9:1 12:1128299 17:1 18:1 20:17 21:17 22:10 23:2021
109 0:27 1:0.45 2:25 3:1 9:1 12:1197831 17:1 18:1 20:3 21:23 22:1 23:2021
91 0:37 1:0.52 2:28 5:1 9:1 12:1197831 17:1 18:1 20:35 21:19 22:9 23:2021
101 0:34 1:0.4299999999999999 2:33 6:1 9:1 12:1128299 17:1 19:1 20:17 21:18 22:5 23:2021
250 0:37 1:0.4 2:15.00000000000001 6:1 9:1 12:1197831 17:1 18:1 20:35 21:19 22:9 23:2021
91 0:37 1:0.42 2:12 7:1 9:1 12:1197831 17:1 19:1 20:35 21:19 22:9 23:2021
88 0:37 1:0.52 2:36 7:1 9:1 12:1197831 17:1 18:1 20:35 21:21 22:6 23:2021
56 0:34 1:0.51 2:34 9:1 12:1128299 17:1 19:1 20:17 21:17 22:4 23:2021
53 0:34 1:0.47 2:33 9:1 12:1128299 17:1 19:1 20:17 21:17 22:2 23:2021
700 0:34 1:0.4 2:70 3:1 9:1 12:1128299 17:1 18:1 20:17 21:17 22:6 23:2021
128 0:34 1:0.45 2:33 7:1 9:1 12:1128299 17:1 19:1 20:17 21:17 22:10 23:2021
90 0:27 1:0.51 2:23 7:1 9:1 12:1197831 17:1 18:1 20:3 21:20 22:11 23:2021
34 0:37 1:0.5 2:20 6:1 9:1 12:1197831 17:1 18:1 20:35 21:19 22:3 23:2021
150 0:34 1:0.45 2:60.00000000000001 9:1 12:1128299 17:1 20:17 21:16 22:3 23:2021
600 0:34 1:0.4 2:90 6:1 9:1 12:1128299 17:1 18:1 20:17 21:16 22:7 23:2021
575 0:37 1:0.4 2:50 4:1 9:1 12:1197831 17:1 18:1 20:35 21:19 22:9 23:2021
250 0:34 1:0.4 2:45.00000000000001 6:1 9:1 12:1128299 17:1 18:1 20:17 21:18 22:9 23:2021
54 0:37 1:0.39 2:27 9:1 12:1197831 17:1 19:1 20:35 21:20 22:4 23:2021
275 0:34 1:0.4 2:40.00000000000001 6:1 9:1 12:1128299 17:1 20:17 21:17 22:4 23:2021
350 0:37 1:0.35 2:35 3:1 9:1 12:1197831 17:1 18:1 20:35 21:21 22:6 23:2021
112 0:27 1:0.49 2:64 9:1 12:1197831 17:1 18:1 20:3 21:19 22:12 23:2021
400 0:34 1:0.35 2:55.00000000000001 5:1 9:1 12:1128299 17:1 18:1 20:17 21:17 22:10 23:2021
216 0:34 1:0.5 2:72 3:1 9:1 12:1128299 17:1 18:1 20:17 21:16 22:12 23:2021
83 0:34 1:0.48 2:41 9:1 12:1128299 17:1 19:1 20:17 21:18 22:9 23:2021
142 0:34 1:0.52 2:48 4:1 9:1 12:1128299 17:1 18:1 20:17 21:17 22:4 23:2021
101 0:27 1:0.52 2:23 5:1 9:1 12:1197831 17:1 18:1 20:3 21:23 22:1 23:2021
750 0:34 1:0.35 2:110 5:1 9:1 12:1128299 17:1 18:1 20:17 21:17 22:6 23:2021
124 0:27 1:0.38 2:18 3:1 9:1 12:1197831 17:1 19:1 20:3 21:23 22:1 23:2021
147 0:34 1:0.51 2:44 4:1 9:1 12:1128299 17:1 18:1 20:17 21:16 22:3 23:2021
52 0:37 1:0.52 2:18 6:1 9:1 12:1197831 17:1 18:1 20:35 21:21 22:10 23:2021
203 0:34 1:0.5499999999999999 2:83 7:1 9:1 12:1128299 17:1 18:1 20:17 21:17 22:6 23:2021
300 0:37 1:0.4 2:40 6:1 9:1 12:1197831 17:1 18:1 20:35 21:21 22:6 23:2021
143 0:34 1:0.47 2:55 6:1 9:1 12:1128299 17:1 19:1 20:17 21:17 22:8 23:2021
208 0:34 1:0.41 2:81 5:1 9:1 12:1128299 17:1 19:1 20:17 21:16 22:7 23:2021
375 0:34 1:0.4 2:40.00000000000001 6:1 9:1 12:1128299 17:1 18:1 20:17 21:17 22:10 23:2021
65 0:34 1:0.5900000000000001 2:36 9:1 12:1128299 17:1 18:1 20:17 21:18 22:5 23:2021
117 0:27 1:0.53 2:73 5:1 9:1 12:1197831 17:1 18:1 20:3 21:20 22:11 23:2021
95 0:34 1:0.5900000000000001 2:47 9:1 12:1128299 17:1 18:1 20:17 21:17 22:10 23:2021
800 0:34 1:0.4 2:70.00000000000001 4:1 9:1 12:1128299 17:1 18:1 20:17 21:16 22:12 23:2021
145 0:34 1:0.5499999999999999 2:43 4:1 9:1 12:1128299 17:1 18:1 20:17 21:18 22:9 23:2021
350 0:34 1:0.35 2:45 5:1 9:1 12:1128299 17:1 20:17 21:16 22:3 23:2021
217 0:22 1:0.4500000000000001 2:46 7:1 9:1 12:1128299 17:1 18:1 20:42 21:3 22:11 23:2020
400 0:34 1:0.4 2:60 7:1 9:1 12:1128299 17:1 20:17 21:16 22:3 23:2021
475 0:34 1:0.45 2:70 9:1 12:1128299 17:1 18:1 20:17 21:17 22:11 23:2021
500 0:27 1:0.4 2:75 5:1 9:1 12:1197831 17:1 18:1 20:3 21:19 22:12 23:2021
75 0:34 1:0.5 2:39 5:1 9:1 12:1128299 17:1 18:1 20:17 21:18 22:9 23:2021
94 0:27 1:0.5 2:14 3:1 9:1 12:1197831 17:1 18:1 20:3 21:20 22:11 23:2021
167 0:37 1:0.54 2:36 4:1 9:1 12:1197831 17:1 18:1 20:35 21:19 22:5 23:2021
123 0:34 1:0.37 2:39 5:1 9:1 12:1128299 17:1 19:1 20:17 21:17 22:4 23:2021
50 0:37 1:0.48 2:29 9:1 12:1197831 17:1 18:1 20:35 21:21 22:10 23:2021
550 0:34 1:0.4 2:45 4:1 9:1 12:1128299 17:1 20:17 21:18 22:5 23:2021
56 0:37 1:0.51 2:20 7:1 9:1 12:1197831 17:1 18:1 20:35 21:21 22:10 23:2021
88 0:34 1:0.5 2:52 3:1 9:1 12:1128299 17:1 18:1 20:17 21:17 22:4 23:2021
595 0:37 1:0.4 2:40 4:1 9:1 12:1197831 17:1 18:1 20:35 21:19 22:5 23:2021
750 0:34 1:0.4 2:95 3:1 9:1 12:1128299 17:1 18:1 20:17 21:16 22:7 23:2021
239 0:34 1:0.51 2:77 3:1 9:1 12:1128299 17:1 18:1 20:17 21:17 22:8 23:2021
230 0:37 1:0.42 2:41 4:1 9:1 12:1197831 17:1 19:1 20:35 21:20 22:8 23:2021
375 0:27 1:0.4 2:55.00000000000001 6:1 9:1 12:1197831 17:1 18:1 20:3 21:20 22:11 23:2021
150 0:37 1:0.54 2:49 4:1 9:1 12:1197831 17:1 18:1 20:35 21:19 22:9 23:2021
175 0:34 1:0.45 2:50.00000000000001 9:1 12:1128299 17:1 20:17 21:17 22:2 23:2021
142 0:37 1:0.54 2:61 5:1 9:1 12:1197831 17:1 18:1 20:35 21:19 22:7 23:2021
375 0:37 1:0.35 2:40.00000000000001 3:1 9:1 12:1197831 17:1 18:1 20:35 21:19 22:9 23:2021
175 0:34 1:0.42 2:33 4:1 9:1 12:1128299 17:1 19:1 20:17 21:18 22:9 23:2021
140 0:37 1:0.42 2:37 3:1 9:1 12:1197831 17:1 19:1 20:35 21:20 22:8 23:2021
100 0:34 1:0.52 2:47 3:1 9:1 12:1128299 17:1 18:1 20:17 21:18 22:5 23:2021
39 0:37 1:0.47 2:16 6:1 9:1 12:1197831 17:1 19:1 20:35 21:19 22:3 23:2021
117 0:34 1:0.5700000000000001 2:92 9:1 12:1128299 17:1 18:1 20:17 21:17 22:6 23:2021
210 0:34 1:0.52 2:42 3:1 9:1 12:1128299 17:1 18:1 20:17 21:17 22:11 23:2021
196 0:37 1:0.46 2:35 4:1 9:1 12:1197831 17:1 19:1 20:35 21:19 22:9 23:2021
120 0:34 1:0.45 2:39 7:1 9:1 12:1128299 17:1 19:1 20:17 21:16 22:3 23:2021
178 0:34 1:0.4 2:46 5:1 9:1 12:1128299 17:1 19:1 20:17 21:18 22:5 23:2021
275 0:27 1:0.35 2:25.00000000000001 3:1 9:1 12:1197831 17:1 18:1 20:3 21:21 22:2 23:2021
117 0:37 1:0.5 2:45 3:1 9:1 12:1197831 17:1 18:1 20:35 21:19 22:7 23:2021
109 0:27 1:0.5 2:51 6:1 9:1 12:1197831 17:1 18:1 20:3 21:20 22:11 23:2021
350 0:37 1:0.35 2:20.00000000000001 3:1 9:1 12:1197831 17:1 18:1 20:35 21:21 22:10 23:2021
255 0:34 1:0.51 2:86 4:1 9:1 12:1128299 17:1 18:1 20:17 21:17 22:8 23:2021
98 0:37 1:0.51 2:18 5:1 9:1 12:1197831 17:1 18:1 20:35 21:21 22:2 23:2021
113 0:37 1:0.47 2:38 7:1 9:1 12:1197831 17:1 19:1 20:35 21:20 22:8 23:2021
450 0:34 1:0.45 2:95 9:1 12:1128299 17:1 18:1 20:17 21:17 22:6 23:2021
80 0:37 1:0.5 2:9 7:1 9:1 12:1197831 17:1 18:1 20:35 21:19 22:3 23:2021
173 0:37 1:0.47 2:20 4:1 9:1 12:1197831 17:1 19:1 20:35 21:21 22:10 23:2021
78 0:34 1:0.52 2:43 7:1 9:1 12:1128299 17:1 18:1 20:17 21:18 22:9 23:2021
100 0:34 1:0.5 2:42 7:1 9:1 12:1128299 17:1 18:1 20:17 21:17 22:10 23:2021
450 0:37 1:0.35 2:55.00000000000001 3:1 9:1 12:1197831 17:1 18:1 20:35 21:20 22:8 23:2021
74 0:37 1:0.42 2:14 7:1 9:1 12:1197831 17:1 19:1 20:35 21:21 22:10 23:2021
77 0:34 1:0.55 2:51 9:1 12:1128299 17:1 18:1 20:17 21:18 22:9 23:2021
135 0:37 1:0.38 2:35 3:1 9:1 12:1197831 17:1 19:1 20:35 21:19 22:7 23:2021
116 0:27 1:0.42 2:11 3:1 9:1 12:1197831 17:1 19:1 20:3 21:20 22:11 23:2021
375 0:34 1:0.35 2:45 5:1 9:1 12:1128299 17:1 20:17 21:17 22:2 23:2021
570 0:37 1:0.4 2:20 4:1 9:1 12:1197831 17:1 18:1 20:35 21:19 22:3 23:2021
256 0:34 1:0.4399999999999999 2:57 3:1 9:1 12:1128299 17:1 19:1 20:17 21:17 22:8 23:2021
116 0:34 1:0.5499999999999999 2:56 7:1 9:1 12:1128299 17:1 18:1 20:17 21:16 22:3 23:2021
63 0:34 1:0.51 2:41 6:1 9:1 12:1128299 17:1 18:1 20:17 21:18 22:9 23:2021
68 0:37 1:0.53 2:14 7:1 9:1 12:1197831 17:1 18:1 20:35 21:20 22:4 23:2021
203 0:34 1:0.5499999999999999 2:92 3:1 9:1 12:1128299 17:1 18:1 20:17 21:16 22:7 23:2021
169 0:27 1:0.52 2:24 4:1 9:1 12:1197831 17:1 18:1 20:3 21:21 22:2 23:2021
111 0:37 1:0.42 2:32 6:1 9:1 12:1197831 17:1 19:1 20:35 21:20 22:8 23:2021
96 0:34 1:0.4299999999999999 2:43 6:1 9:1 12:1128299 17:1 19:1 20:17 21:16 22:3 23:2021
450 0:27 1:0.4 2:75 5:1 9:1 12:1197831 17:1 18:1 20:3 21:20 22:11 23:2021
75 0:37 1:0.45 2:43 9:1 12:1197831 17:1 18:1 20:35 21:19 22:5 23:2021
209 0:22 1:0.4500000000000001 2:37 4:1 9:1 12:1128299 17:1 18:1 20:42 21:1 22:11 23:2020
238 0:27 1:0.46 2:55 4:1 9:1 12:1197831 17:1 19:1 20:3 21:19 22:12 23:2021
73 0:37 1:0.48 2:19 3:1 9:1 12:1197831 17:1 18:1 20:35 21:19 22:3 23:2021
120 0:27 1:0.51 2:57 6:1 9:1 12:1197831 17:1 18:1 20:3 21:19 22:12 23:2021
170 0:27 1:0.45 2:55 5:1 9:1 12:1197831 17:1 19:1 20:3 21:19 22:12 23:2021
