700 0:35 1:0.45 2:35 6:1 8:1 12:1197831 15:1 19:1 20:31 21:22 22:7 23:2020
60 0:4 1:0.49 2:37 7:1 8:1 12:1185732 15:1 18:1 20:19 21:20 22:7 23:2021
87 0:8 1:0.36 2:34 6:1 8:1 12:1185732 15:1 18:1 20:20 21:13 22:3 23:2021
400 0:20 1:0.4 2:50 3:1 8:1 12:1185732 15:1 20:6 21:3 22:7 23:2021
68 0:43 1:0.45 2:36 6:1 8:1 12:1185732 15:1 19:1 20:38 21:7 22:11 23:2021
225 0:43 1:0.3 2:60 8:1 12:1185732 15:1 20:38 21:6 22:12 23:2021
35 0:8 1:0.39 2:32 6:1 8:1 12:1185732 15:1 18:1 20:20 21:14 22:4 23:2021
54 0:8 1:0.38 2:50 8:1 12:1185732 15:1 18:1 20:20 21:13 22:5 23:2021
27 0:8 1:0.38 2:54 6:1 8:1 12:1185732 15:1 18:1 20:20 21:15 22:10 23:2021
152 0:20 1:0.38 2:40 5:1 8:1 12:1185732 15:1 19:1 20:6 21:3 22:7 23:2021
225 0:8 1:0.3 2:55.00000000000001 3:1 8:1 12:1185732 15:1 20:20 21:15 22:10 23:2021
128 0:4 1:0.51 2:49 4:1 8:1 12:1185732 15:1 18:1 20:19 21:20 22:9 23:2021
75 0:20 1:0.52 2:47 3:1 8:1 12:1185732 15:1 18:1 20:6 21:3 22:9 23:2021
250 0:43 1:0.3 2:40 5:1 8:1 12:1185732 15:1 20:38 21:17 22:1 23:2021
83 0:8 1:0.44 2:39 5:1 8:1 12:1185732 15:1 18:1 20:20 21:14 22:4 23:2021
80 0:20 1:0.44 2:42 6:1 8:1 12:1185732 15:1 18:1 20:6 21:3 22:7 23:2021
170 0:20 1:0.47 2:43 4:1 8:1 12:1185732 15:1 19:1 20:6 21:3 22:9 23:2021
51 0:8 1:0.36 2:42 6:1 8:1 12:1185732 15:1 18:1 20:20 21:14 22:8 23:2021
77 0:43 1:0.52 2:60 5:1 8:1 12:1185732 15:1 18:1 20:38 21:7 22:11 23:2021
350 0:4 1:0.3 2:54.99999999999999 5:1 8:1 12:1185732 15:1 20:19 21:20 22:7 23:2021
100 0:4 1:0.3 2:49.99999999999999 8:1 12:1185732 15:1 20:19 21:20 22:9 23:2021
81 0:4 1:0.43 2:53 5:1 8:1 12:1185732 15:1 18:1 20:19 21:21 22:8 23:2021
200 0:4 1:0.35 2:40 7:1 8:1 12:1185732 15:1 20:19 21:20 22:7 23:2021
65 0:36 1:0.55 2:49 6:1 8:1 12:1185732 15:1 18:1 20:29 21:7 22:11 23:2021
77 0:8 1:0.37 2:41 7:1 8:1 12:1185732 15:1 18:1 20:20 21:13 22:7 23:2021
161 0:8 1:0.44 2:50 4:1 8:1 12:1185732 15:1 18:1 20:20 21:14 22:8 23:2021
34 0:8 1:0.36 2:52 8:1 12:1185732 15:1 18:1 20:20 21:13 22:9 23:2021
75 0:20 1:0.32 2:23 7:1 8:1 12:1185732 15:1 19:1 20:6 21:3 22:3 23:2021
175 0:8 1:0.25 2:45 6:1 8:1 12:1185732 15:1 20:20 21:14 22:8 23:2021
77 0:8 1:0.32 2:34 6:1 8:1 12:1185732 15:1 19:1 20:20 21:13 22:7 23:2021
220 0:43 1:0.4 2:50 7:1 8:1 12:1185732 15:1 20:38 21:7 22:11 23:2021
155 0:8 1:0.42 2:51 4:1 8:1 12:1185732 15:1 18:1 20:20 21:15 22:6 23:2021
60 0:8 1:0.32 2:23 7:1 8:1 12:1185732 15:1 19:1 20:20 21:13 22:3 23:2021
125 0:20 1:0.3 2:50 8:1 12:1185732 15:1 20:6 21:4 22:4 23:2021
275 0:20 1:0.35 2:40 5:1 8:1 12:1185732 15:1 20:6 21:4 22:4 23:2021
200 0:20 1:0.3 2:45 7:1 8:1 12:1185732 15:1 20:6 21:3 22:9 23:2021
54 0:8 1:0.43 2:47 3:1 8:1 12:1185732 15:1 18:1 20:20 21:13 22:5 23:2021
250 0:43 1:0.3 2:40 3:1 8:1 12:1185732 15:1 20:38 21:17 22:1 23:2021
105 0:36 1:0.48 2:49 3:1 8:1 12:1185732 15:1 18:1 20:29 21:6 22:12 23:2021
135 0:8 1:0.42 2:53 4:1 8:1 12:1185732 15:1 18:1 20:20 21:13 22:9 23:2021
275 0:20 1:0.4 2:55.00000000000001 3:1 8:1 12:1185732 15:1 20:6 21:5 22:10 23:2021
59 0:8 1:0.38 2:51 8:1 12:1185732 15:1 18:1 20:20 21:15 22:6 23:2021
88 0:43 1:0.34 2:28 3:1 8:1 12:1185732 15:1 19:1 20:38 21:17 22:1 23:2021
102 0:4 1:0.42 2:54 5:1 8:1 12:1185732 15:1 18:1 20:19 21:20 22:7 23:2021
70 0:20 1:0.44 2:50 8:1 12:1185732 15:1 18:1 20:6 21:3 22:5 23:2021
49 0:20 1:0.43 2:53 7:1 8:1 12:1185732 15:1 18:1 20:6 21:5 22:10 23:2021
350 0:36 1:0.35 2:50 3:1 8:1 12:1185732 15:1 20:29 21:6 22:12 23:2021
83 0:20 1:0.34 2:32 7:1 8:1 12:1185732 15:1 19:1 20:6 21:3 22:5 23:2021
83 0:20 1:0.35 2:37 8:1 12:1185732 15:1 19:1 20:6 21:3 22:5 23:2021
150 0:8 1:0.25 2:54.99999999999999 8:1 12:1185732 15:1 20:20 21:14 22:8 23:2021
81 0:20 1:0.44 2:44 7:1 8:1 12:1185732 15:1 18:1 20:6 21:3 22:7 23:2021
250 0:36 1:0.4 2:50 6:1 8:1 12:1185732 15:1 20:29 21:7 22:11 23:2021
32 0:8 1:0.27 2:38 6:1 8:1 12:1185732 15:1 19:1 20:20 21:15 22:10 23:2021
300 0:36 1:0.3 2:30 7:1 8:1 12:1185732 15:1 20:29 21:7 22:1 23:2021
200 0:8 1:0.25 2:54.99999999999999 8:1 12:1185732 15:1 20:20 21:13 22:5 23:2021
650 0:20 1:0.4 2:54.99999999999999 4:1 8:1 12:1185732 15:1 20:6 21:3 22:7 23:2021
30 0:4 1:0.43 2:48 8:1 12:1185732 15:1 18:1 20:19 21:20 22:9 23:2021
450 0:8 1:0.3 2:40 4:1 8:1 12:1185732 15:1 20:20 21:14 22:4 23:2021
550 0:36 1:0.4 2:40 4:1 8:1 12:1185732 15:1 20:29 21:5 22:2 23:2021
150 0:8 1:0.42 2:52 4:1 8:1 12:1185732 15:1 18:1 20:20 21:13 22:7 23:2021
500 0:36 1:0.4 2:40 4:1 8:1 12:1185732 15:1 20:29 21:7 22:1 23:2021
36 0:8 1:0.4 2:42 6:1 8:1 12:1185732 15:1 18:1 20:20 21:13 22:9 23:2021
72 0:4 1:0.48 2:42 3:1 8:1 12:1185732 15:1 18:1 20:19 21:20 22:7 23:2021
150 0:36 1:0.3 2:35 6:1 8:1 12:1185732 15:1 20:29 21:7 22:1 23:2021
59 0:36 1:0.44 2:55 8:1 12:1185732 15:1 18:1 20:29 21:7 22:11 23:2021
225 0:35 1:0.49 2:34 3:1 8:1 12:1197831 15:1 18:1 20:31 21:20 22:7 23:2020
60 0:8 1:0.28 2:39 8:1 12:1185732 15:1 19:1 20:20 21:13 22:5 23:2021
63 0:43 1:0.45 2:46 3:1 8:1 12:1185732 15:1 18:1 20:38 21:7 22:11 23:2021
225 0:8 1:0.25 2:45 6:1 8:1 12:1185732 15:1 20:20 21:15 22:6 23:2021
153 0:20 1:0.42 2:46 4:1 8:1 12:1185732 15:1 19:1 20:6 21:5 22:10 23:2021
42 0:20 1:0.42 2:64 8:1 12:1185732 15:1 18:1 20:6 21:5 22:10 23:2021
58 0:20 1:0.36 2:41 8:1 12:1185732 15:1 19:1 20:6 21:3 22:9 23:2021
83 0:20 1:0.44 2:35 3:1 8:1 12:1185732 15:1 19:1 20:6 21:3 22:5 23:2021
74 0:8 1:0.32 2:39 8:1 12:1185732 15:1 19:1 20:20 21:15 22:6 23:2021
200 0:20 1:0.3 2:54.99999999999999 8:1 12:1185732 15:1 20:6 21:4 22:8 23:2021
60 0:43 1:0.38 2:29 7:1 8:1 12:1185732 15:1 18:1 20:38 21:15 22:2 23:2021
31 0:8 1:0.3 2:36 8:1 12:1185732 15:1 19:1 20:20 21:13 22:3 23:2021
45 0:8 1:0.44 2:37 3:1 8:1 12:1185732 15:1 18:1 20:20 21:14 22:4 23:2021
175 0:8 1:0.25 2:45 6:1 8:1 12:1185732 15:1 20:20 21:13 22:5 23:2021
300 0:20 1:0.35 2:40 5:1 8:1 12:1185732 15:1 20:6 21:5 22:2 23:2021
75 0:8 1:0.31 2:36 7:1 8:1 12:1185732 15:1 19:1 20:20 21:15 22:6 23:2021
200 0:4 1:0.3 2:54.99999999999999 5:1 8:1 12:1185732 15:1 20:19 21:20 22:9 23:2021
44 0:4 1:0.46 2:37 6:1 8:1 12:1185732 15:1 18:1 20:19 21:21 22:8 23:2021
275 0:20 1:0.3 2:45 6:1 8:1 12:1185732 15:1 20:6 21:5 22:6 23:2021
51 0:8 1:0.31 2:22 7:1 8:1 12:1185732 15:1 19:1 20:20 21:14 22:4 23:2021
68 0:20 1:0.45 2:29 7:1 8:1 12:1185732 15:1 18:1 20:6 21:3 22:3 23:2021
91 0:36 1:0.53 2:59 5:1 8:1 12:1185732 15:1 18:1 20:29 21:7 22:11 23:2021
34 0:8 1:0.35 2:53 7:1 8:1 12:1185732 15:1 18:1 20:20 21:15 22:10 23:2021
300 0:4 1:0.3 2:54.99999999999999 5:1 8:1 12:1185732 15:1 20:19 21:21 22:8 23:2021
200 0:8 1:0.3 2:50 3:1 8:1 12:1185732 15:1 20:20 21:13 22:5 23:2021
42 0:36 1:0.44 2:33 6:1 8:1 12:1185732 15:1 18:1 20:29 21:7 22:1 23:2021
81 0:36 1:0.5 2:37 5:1 8:1 12:1185732 15:1 18:1 20:29 21:7 22:1 23:2021
105 0:43 1:0.42 2:40 4:1 8:1 12:1185732 15:1 19:1 20:38 21:7 22:11 23:2021
400 0:36 1:0.35 2:60 4:1 8:1 12:1185732 15:1 20:29 21:7 22:11 23:2021
200 0:20 1:0.3 2:30 7:1 8:1 12:1185732 15:1 20:6 21:4 22:4 23:2021
29 0:8 1:0.39 2:46 8:1 12:1185732 15:1 18:1 20:20 21:13 22:3 23:2021
325 0:8 1:0.3 2:50 3:1 8:1 12:1185732 15:1 20:20 21:15 22:6 23:2021
112 0:20 1:0.53 2:48 3:1 8:1 12:1185732 15:1 18:1 20:6 21:3 22:7 23:2021
73 0:43 1:0.36 2:27 7:1 8:1 12:1185732 15:1 18:1 20:38 21:17 22:1 23:2021
520 0:20 1:0.4 2:40 4:1 8:1 12:1185732 15:1 20:6 21:3 22:3 23:2021
88 0:8 1:0.41 2:47 3:1 8:1 12:1185732 15:1 18:1 20:20 21:14 22:8 23:2021
102 0:43 1:0.37 2:37 3:1 8:1 12:1185732 15:1 19:1 20:38 21:6 22:12 23:2021
300 0:20 1:0.4 2:50 3:1 8:1 12:1185732 15:1 20:6 21:3 22:9 23:2021
275 0:43 1:0.4 2:50 7:1 8:1 12:1185732 15:1 20:38 21:6 22:12 23:2021
65 0:36 1:0.45 2:29 7:1 8:1 12:1185732 15:1 18:1 20:29 21:5 22:2 23:2021
113 0:20 1:0.49 2:55 5:1 8:1 12:1185732 15:1 18:1 20:6 21:3 22:5 23:2021
210 0:35 1:0.52 2:27 6:1 8:1 12:1197831 15:1 19:1 20:31 21:22 22:7 23:2020
140 0:43 1:0.33 2:28 4:1 8:1 12:1185732 15:1 19:1 20:38 21:17 22:1 23:2021
58 0:20 1:0.34 2:30 6:1 8:1 12:1185732 15:1 19:1 20:6 21:3 22:9 23:2021
63 0:8 1:0.4 2:49 3:1 8:1 12:1185732 15:1 18:1 20:20 21:13 22:9 23:2021
45 0:20 1:0.33 2:50 8:1 12:1185732 15:1 19:1 20:6 21:5 22:10 23:2021
66 0:43 1:0.44 2:47 5:1 8:1 12:1185732 15:1 19:1 20:38 21:8 22:10 23:2021
74 0:43 1:0.37 2:41 8:1 12:1185732 15:1 19:1 20:38 21:6 22:12 23:2021
200 0:20 1:0.3 2:50 8:1 12:1185732 15:1 20:6 21:5 22:2 23:2021
81 0:20 1:0.44 2:53 8:1 12:1185732 15:1 18:1 20:6 21:3 22:7 23:2021
126 0:43 1:0.43 2:38 4:1 8:1 12:1185732 15:1 18:1 20:38 21:17 22:1 23:2021
84 0:20 1:0.45 2:39 5:1 8:1 12:1185732 15:1 18:1 20:6 21:5 22:2 23:2021
180 0:8 1:0.33 2:37 4:1 8:1 12:1185732 15:1 19:1 20:20 21:13 22:7 23:2021
175 0:20 1:0.3 2:54.99999999999999 8:1 12:1185732 15:1 20:6 21:3 22:9 23:2021
124 0:20 1:0.38 2:44 5:1 8:1 12:1185732 15:1 19:1 20:6 21:4 22:8 23:2021
95 0:43 1:0.49 2:55 4:1 8:1 12:1185732 15:1 18:1 20:38 21:7 22:11 23:2021
85 0:20 1:0.39 2:29 5:1 8:1 12:1185732 15:1 19:1 20:6 21:3 22:3 23:2021
275 0:20 1:0.35 2:60 5:1 8:1 12:1185732 15:1 20:6 21:3 22:9 23:2021
175 0:20 1:0.55 2:50 4:1 8:1 12:1185732 15:1 18:1 20:6 21:5 22:6 23:2021
112 0:8 1:0.32 2:33 3:1 8:1 12:1185732 15:1 19:1 20:20 21:14 22:8 23:2021
375 0:4 1:0.4 2:54.99999999999999 4:1 8:1 12:1185732 15:1 20:19 21:22 22:10 23:2021
34 0:20 1:0.44 2:32 6:1 8:1 12:1185732 15:1 18:1 20:6 21:5 22:2 23:2021
44 0:43 1:0.44 2:58 8:1 12:1185732 15:1 18:1 20:38 21:7 22:11 23:2021
73 0:20 1:0.49 2:38 5:1 8:1 12:1185732 15:1 18:1 20:6 21:3 22:3 23:2021
475 0:20 1:0.35 2:60 5:1 8:1 12:1185732 15:1 20:6 21:3 22:7 23:2021
41 0:8 1:0.38 2:48 8:1 12:1185732 15:1 18:1 20:20 21:15 22:2 23:2021
150 0:8 1:0.3 2:40 3:1 8:1 12:1185732 15:1 20:20 21:14 22:4 23:2021
375 0:36 1:0.4 2:64.99999999999999 5:1 8:1 12:1185732 15:1 20:29 21:6 22:12 23:2021
225 0:20 1:0.4 2:40 3:1 8:1 12:1185732 15:1 20:6 21:3 22:3 23:2021
83 0:36 1:0.45 2:55 8:1 12:1185732 15:1 18:1 20:29 21:6 22:12 23:2021
550 0:36 1:0.35 2:60 4:1 8:1 12:1185732 15:1 20:29 21:6 22:12 23:2021
125 0:20 1:0.54 2:52 4:1 8:1 12:1185732 15:1 18:1 20:6 21:3 22:9 23:2021
68 0:8 1:0.39 2:53 8:1 12:1185732 15:1 18:1 20:20 21:13 22:7 23:2021
53 0:43 1:0.35 2:31 3:1 8:1 12:1185732 15:1 19:1 20:38 21:15 22:2 23:2021
163 0:20 1:0.55 2:51 4:1 8:1 12:1185732 15:1 18:1 20:6 21:4 22:8 23:2021
101 0:8 1:0.4 2:54 5:1 8:1 12:1185732 15:1 18:1 20:20 21:15 22:6 23:2021
400 0:20 1:0.4 2:50 3:1 8:1 12:1185732 15:1 20:6 21:4 22:8 23:2021
88 0:8 1:0.41 2:55 5:1 8:1 12:1185732 15:1 18:1 20:20 21:13 22:5 23:2021
83 0:43 1:0.34 2:26 5:1 8:1 12:1185732 15:1 19:1 20:38 21:17 22:1 23:2021
68 0:20 1:0.41 2:41 6:1 8:1 12:1185732 15:1 18:1 20:6 21:4 22:8 23:2021
41 0:43 1:0.42 2:38 3:1 8:1 12:1185732 15:1 18:1 20:38 21:15 22:2 23:2021
85 0:43 1:0.55 2:60 5:1 8:1 12:1185732 15:1 18:1 20:38 21:6 22:12 23:2021
275 0:20 1:0.3 2:54.99999999999999 8:1 12:1185732 15:1 20:6 21:5 22:6 23:2021
61 0:8 1:0.34 2:31 3:1 8:1 12:1185732 15:1 19:1 20:20 21:13 22:3 23:2021
70 0:43 1:0.29 2:24 7:1 8:1 12:1185732 15:1 19:1 20:38 21:15 22:2 23:2021
225 0:8 1:0.25 2:54.99999999999999 8:1 12:1185732 15:1 20:20 21:15 22:6 23:2021
234 0:35 1:0.47 2:24 4:1 8:1 12:1197831 15:1 18:1 20:31 21:19 22:7 23:2020
41 0:8 1:0.35 2:29 7:1 8:1 12:1185732 15:1 18:1 20:20 21:14 22:4 23:2021
38 0:8 1:0.3 2:41 7:1 8:1 12:1185732 15:1 19:1 20:20 21:15 22:10 23:2021
225 0:4 1:0.35 2:45 3:1 8:1 12:1185732 15:1 20:19 21:20 22:9 23:2021
80 0:8 1:0.31 2:41 8:1 12:1185732 15:1 19:1 20:20 21:13 22:7 23:2021
125 0:8 1:0.25 2:54.99999999999999 8:1 12:1185732 15:1 20:20 21:13 22:9 23:2021
72 0:8 1:0.28 2:34 6:1 8:1 12:1185732 15:1 19:1 20:20 21:15 22:6 23:2021
150 0:8 1:0.25 2:45 7:1 8:1 12:1185732 15:1 20:20 21:13 22:9 23:2021
54 0:8 1:0.41 2:39 5:1 8:1 12:1185732 15:1 18:1 20:20 21:13 22:3 23:2021
53 0:20 1:0.34 2:39 8:1 12:1185732 15:1 19:1 20:6 21:3 22:3 23:2021
375 0:20 1:0.4 2:50 3:1 8:1 12:1185732 15:1 20:6 21:5 22:6 23:2021
150 0:20 1:0.3 2:65 8:1 12:1185732 15:1 20:6 21:5 22:10 23:2021
68 0:20 1:0.45 2:32 3:1 8:1 12:1185732 15:1 19:1 20:6 21:3 22:3 23:2021
53 0:8 1:0.27 2:36 8:1 12:1185732 15:1 19:1 20:20 21:15 22:2 23:2021
68 0:36 1:0.53 2:62 5:1 8:1 12:1185732 15:1 18:1 20:29 21:8 22:10 23:2021
34 0:8 1:0.28 2:51 8:1 12:1185732 15:1 19:1 20:20 21:15 22:10 23:2021
64 0:43 1:0.54 2:48 7:1 8:1 12:1185732 15:1 18:1 20:38 21:7 22:11 23:2021
91 0:20 1:0.32 2:36 8:1 12:1185732 15:1 19:1 20:6 21:5 22:6 23:2021
575 0:8 1:0.3 2:54.99999999999999 4:1 8:1 12:1185732 15:1 20:20 21:14 22:8 23:2021
125 0:4 1:0.35 2:40 7:1 8:1 12:1185732 15:1 20:19 21:20 22:9 23:2021
68 0:8 1:0.31 2:30 7:1 8:1 12:1185732 15:1 19:1 20:20 21:13 22:5 23:2021
47 0:8 1:0.39 2:44 6:1 8:1 12:1185732 15:1 18:1 20:20 21:13 22:5 23:2021
300 0:43 1:0.35 2:50 3:1 8:1 12:1185732 15:1 20:38 21:6 22:12 23:2021
625 0:20 1:0.4 2:54.99999999999999 4:1 8:1 12:1185732 15:1 20:6 21:4 22:8 23:2021
50 0:4 1:0.4 2:54 5:1 8:1 12:1185732 15:1 18:1 20:19 21:20 22:9 23:2021
111 0:43 1:0.43 2:51 5:1 8:1 12:1185732 15:1 19:1 20:38 21:6 22:12 23:2021
68 0:8 1:0.38 2:32 6:1 8:1 12:1185732 15:1 18:1 20:20 21:15 22:2 23:2021
36 0:4 1:0.5 2:38 7:1 8:1 12:1185732 15:1 18:1 20:19 21:20 22:9 23:2021
75 0:43 1:0.29 2:22 7:1 8:1 12:1185732 15:1 19:1 20:38 21:17 22:1 23:2021
88 0:43 1:0.47 2:40 7:1 8:1 12:1185732 15:1 19:1 20:38 21:6 22:12 23:2021
123 0:20 1:0.49 2:56 5:1 8:1 12:1185732 15:1 18:1 20:6 21:5 22:6 23:2021
65 0:8 1:0.35 2:41 6:1 8:1 12:1185732 15:1 18:1 20:20 21:15 22:6 23:2021
83 0:20 1:0.49 2:54 5:1 8:1 12:1185732 15:1 18:1 20:6 21:3 22:9 23:2021
250 0:8 1:0.3 2:40 5:1 8:1 12:1185732 15:1 20:20 21:15 22:2 23:2021
38 0:4 1:0.45 2:47 8:1 12:1185732 15:1 18:1 20:19 21:21 22:8 23:2021
58 0:43 1:0.55 2:48 6:1 8:1 12:1185732 15:1 18:1 20:38 21:7 22:11 23:2021
189 0:20 1:0.54 2:54 4:1 8:1 12:1185732 15:1 18:1 20:6 21:3 22:7 23:2021
625 0:20 1:0.4 2:54.99999999999999 4:1 8:1 12:1185732 15:1 20:6 21:5 22:6 23:2021
56 0:8 1:0.4 2:41 7:1 8:1 12:1185732 15:1 18:1 20:20 21:13 22:5 23:2021
325 0:8 1:0.3 2:60 5:1 8:1 12:1185732 15:1 20:20 21:14 22:8 23:2021
39 0:8 1:0.27 2:34 6:1 8:1 12:1185732 15:1 19:1 20:20 21:13 22:9 23:2021
77 0:43 1:0.43 2:34 6:1 8:1 12:1185732 15:1 19:1 20:38 21:6 22:12 23:2021
94 0:20 1:0.44 2:39 3:1 8:1 12:1185732 15:1 19:1 20:6 21:5 22:10 23:2021
35 0:20 1:0.45 2:46 8:1 12:1185732 15:1 18:1 20:6 21:4 22:4 23:2021
69 0:8 1:0.35 2:42 7:1 8:1 12:1185732 15:1 18:1 20:20 21:14 22:8 23:2021
62 0:20 1:0.33 2:43 8:1 12:1185732 15:1 19:1 20:6 21:4 22:8 23:2021
111 0:20 1:0.34 2:29 7:1 8:1 12:1185732 15:1 19:1 20:6 21:3 22:7 23:2021
300 0:36 1:0.35 2:40 5:1 8:1 12:1185732 15:1 20:29 21:7 22:1 23:2021
127 0:8 1:0.44 2:38 4:1 8:1 12:1185732 15:1 18:1 20:20 21:13 22:3 23:2021
160 0:43 1:0.39 2:48 4:1 8:1 12:1185732 15:1 19:1 20:38 21:6 22:12 23:2021
74 0:43 1:0.51 2:47 7:1 8:1 12:1185732 15:1 18:1 20:38 21:6 22:12 23:2021
142 0:20 1:0.51 2:54 4:1 8:1 12:1185732 15:1 18:1 20:6 21:3 22:5 23:2021
74 0:43 1:0.42 2:40 3:1 8:1 12:1185732 15:1 19:1 20:38 21:7 22:11 23:2021
87 0:36 1:0.52 2:37 3:1 8:1 12:1185732 15:1 18:1 20:29 21:7 22:1 23:2021
56 0:8 1:0.36 2:44 6:1 8:1 12:1185732 15:1 18:1 20:20 21:13 22:7 23:2021
54 0:8 1:0.3 2:32 6:1 8:1 12:1185732 15:1 19:1 20:20 21:13 22:5 23:2021
125 0:8 1:0.25 2:35 6:1 8:1 12:1185732 15:1 20:20 21:14 22:4 23:2021
64 0:20 1:0.44 2:30 3:1 8:1 12:1185732 15:1 19:1 20:6 21:4 22:4 23:2021
80 0:36 1:0.49 2:46 3:1 8:1 12:1185732 15:1 18:1 20:29 21:7 22:11 23:2021
450 0:20 1:0.4 2:60 4:1 8:1 12:1185732 15:1 20:6 21:5 22:10 23:2021
150 0:43 1:0.25 2:50 8:1 12:1185732 15:1 20:38 21:17 22:1 23:2021
98 0:8 1:0.35 2:46 5:1 8:1 12:1185732 15:1 19:1 20:20 21:14 22:8 23:2021
114 0:8 1:0.32 2:36 3:1 8:1 12:1185732 15:1 19:1 20:20 21:15 22:6 23:2021
155 0:20 1:0.46 2:28 4:1 8:1 12:1185732 15:1 19:1 20:6 21:4 22:4 23:2021
70 0:43 1:0.41 2:38 5:1 8:1 12:1185732 15:1 18:1 20:38 21:17 22:1 23:2021
425 0:8 1:0.3 2:60 5:1 8:1 12:1185732 15:1 20:20 21:13 22:7 23:2021
60 0:20 1:0.44 2:49 8:1 12:1185732 15:1 18:1 20:6 21:5 22:2 23:2021
90 0:36 1:0.4 2:28 7:1 8:1 12:1185732 15:1 18:1 20:29 21:7 22:1 23:2021
300 0:8 1:0.25 2:35 6:1 8:1 12:1185732 15:1 20:20 21:13 22:3 23:2021
375 0:20 1:0.35 2:60 5:1 8:1 12:1185732 15:1 20:6 21:3 22:5 23:2021
149 0:36 1:0.48 2:55 4:1 8:1 12:1185732 15:1 18:1 20:29 21:6 22:12 23:2021
270 0:36 1:0.4 2:50 7:1 8:1 12:1185732 15:1 20:29 21:7 22:11 23:2021
275 0:20 1:0.3 2:45 7:1 8:1 12:1185732 15:1 20:6 21:3 22:5 23:2021
125 0:4 1:0.3 2:49.99999999999999 8:1 12:1185732 15:1 20:19 21:21 22:8 23:2021
325 0:36 1:0.4 2:50 7:1 8:1 12:1185732 15:1 20:29 21:6 22:12 23:2021
113 0:20 1:0.55 2:59 4:1 8:1 12:1185732 15:1 18:1 20:6 21:5 22:10 23:2021
39 0:20 1:0.4 2:48 8:1 12:1185732 15:1 18:1 20:6 21:3 22:3 23:2021
325 0:8 1:0.3 2:60 5:1 8:1 12:1185732 15:1 20:20 21:13 22:5 23:2021
275 0:4 1:0.35 2:45 3:1 8:1 12:1185732 15:1 20:19 21:21 22:8 23:2021
375 0:8 1:0.3 2:60 5:1 8:1 12:1185732 15:1 20:20 21:15 22:6 23:2021
68 0:43 1:0.45 2:37 7:1 8:1 12:1185732 15:1 19:1 20:38 21:7 22:11 23:2021
350 0:8 1:0.3 2:50 3:1 8:1 12:1185732 15:1 20:20 21:13 22:7 23:2021
77 0:8 1:0.33 2:41 5:1 8:1 12:1185732 15:1 19:1 20:20 21:13 22:9 23:2021
250 0:36 1:0.3 2:30 7:1 8:1 12:1185732 15:1 20:29 21:5 22:2 23:2021
125 0:8 1:0.25 2:50 8:1 12:1185732 15:1 20:20 21:14 22:4 23:2021
195 0:20 1:0.45 2:42 4:1 8:1 12:1185732 15:1 19:1 20:6 21:3 22:7 23:2021
270 0:35 1:0.37 2:26 3:1 8:1 12:1197831 15:1 19:1 20:31 21:20 22:7 23:2020
56 0:20 1:0.43 2:29 7:1 8:1 12:1185732 15:1 18:1 20:6 21:4 22:4 23:2021
105 0:8 1:0.37 2:36 3:1 8:1 12:1185732 15:1 19:1 20:20 21:13 22:7 23:2021
117 0:8 1:0.45 2:38 4:1 8:1 12:1185732 15:1 18:1 20:20 21:14 22:4 23:2021
196 0:8 1:0.33 2:40 4:1 8:1 12:1185732 15:1 19:1 20:20 21:14 22:8 23:2021
375 0:20 1:0.35 2:60 5:1 8:1 12:1185732 15:1 20:6 21:4 22:8 23:2021
150 0:20 1:0.3 2:50 8:1 12:1185732 15:1 20:6 21:3 22:3 23:2021
200 0:4 1:0.35 2:50 3:1 8:1 12:1185732 15:1 20:19 21:22 22:10 23:2021
34 0:20 1:0.32 2:27 6:1 8:1 12:1185732 15:1 19:1 20:6 21:3 22:3 23:2021
120 0:8 1:0.35 2:47 5:1 8:1 12:1185732 15:1 19:1 20:20 21:15 22:6 23:2021
100 0:8 1:0.25 2:65 8:1 12:1185732 15:1 20:20 21:15 22:10 23:2021
238 0:35 1:0.39 2:27 7:1 8:1 12:1197831 15:1 19:1 20:31 21:21 22:7 23:2020
