297 0:22 1:0.46 2:39 7:1 9:1 12:1197831 16:1 18:1 20:42 21:1 22:9 23:2020
149 0:27 1:0.39 2:25 3:1 9:1 12:1197831 16:1 19:1 20:3 21:21 22:6 23:2021
259 0:22 1:0.45 2:41 3:1 9:1 12:1197831 16:1 18:1 20:42 21:31 22:8 23:2020
700 0:22 1:0.3 2:45 9:1 12:1197831 16:1 19:1 20:42 21:28 22:8 23:2020
143 0:27 1:0.52 2:50 5:1 9:1 12:1197831 16:1 18:1 20:3 21:20 22:8 23:2021
850 0:22 1:0.35 2:45 4:1 9:1 12:1197831 16:1 19:1 20:42 21:5 22:9 23:2020
147 0:24 1:0.42 2:32 6:1 9:1 12:1185732 16:1 19:1 20:23 21:17 22:8 23:2021
83 0:27 1:0.47 2:27 9:1 12:1197831 16:1 18:1 20:3 21:21 22:10 23:2021
245 0:22 1:0.51 2:31 6:1 9:1 12:1197831 16:1 19:1 20:42 21:15 22:8 23:2020
295 0:22 1:0.5700000000000001 2:32 5:1 9:1 12:1197831 16:1 19:1 20:42 21:17 22:8 23:2020
150 0:22 1:0.41 2:42 9:1 12:1197831 16:1 18:1 20:42 21:15 22:9 23:2020
126 0:27 1:0.52 2:47 7:1 9:1 12:1197831 16:1 18:1 20:3 21:20 22:8 23:2021
293 0:22 1:0.63 2:47 5:1 9:1 12:1197831 16:1 18:1 20:42 21:29 22:8 23:2020
119 0:27 1:0.44 2:27 7:1 9:1 12:1197831 16:1 19:1 20:3 21:19 22:5 23:2021
950 0:22 1:0.35 2:45 3:1 9:1 12:1197831 16:1 19:1 20:42 21:19 22:8 23:2020
210 0:22 1:0.52 2:36 6:1 9:1 12:1197831 16:1 19:1 20:42 21:29 22:10 23:2020
500 0:24 1:0.35 2:60 9:1 12:1185732 16:1 18:1 20:23 21:16 22:7 23:2021
163 0:27 1:0.39 2:42 3:1 9:1 12:1197831 16:1 19:1 20:3 21:20 22:8 23:2021
78 0:27 1:0.47 2:15 6:1 9:1 12:1197831 16:1 19:1 20:3 21:21 22:2 23:2021
184 0:22 1:0.37 2:35 9:1 12:1197831 16:1 19:1 20:42 21:15 22:9 23:2020
176 0:24 1:0.61 2:61 5:1 9:1 12:1185732 16:1 18:1 20:23 21:16 22:7 23:2021
315 0:22 1:0.38 2:36 7:1 9:1 12:1197831 16:1 19:1 20:42 21:7 22:9 23:2020
525 0:27 1:0.35 2:55.00000000000001 3:1 9:1 12:1197831 16:1 18:1 20:3 21:20 22:8 23:2021
700 0:22 1:0.45 2:40 6:1 9:1 12:1197831 16:1 19:1 20:42 21:27 22:8 23:2020
165 0:27 1:0.43 2:48 5:1 9:1 12:1197831 16:1 19:1 20:3 21:21 22:6 23:2021
255 0:22 1:0.48 2:44 4:1 9:1 12:1197831 16:1 18:1 20:42 21:5 22:9 23:2020
900 0:22 1:0.35 2:50 7:1 9:1 12:1197831 16:1 19:1 20:42 21:7 22:9 23:2020
600 0:22 1:0.45 2:50 6:1 9:1 12:1197831 16:1 19:1 20:42 21:14 22:9 23:2020
200 0:27 1:0.4 2:20 6:1 9:1 12:1197831 16:1 18:1 20:3 21:19 22:3 23:2021
248 0:22 1:0.39 2:29 3:1 9:1 12:1197831 16:1 19:1 20:42 21:12 22:9 23:2020
1000 0:22 1:0.5 2:50 5:1 9:1 12:1197831 16:1 19:1 20:42 21:23 22:8 23:2020
175 0:22 1:0.43 2:44 9:1 12:1197831 16:1 18:1 20:42 21:9 22:9 23:2020
77 0:27 1:0.47 2:13 6:1 9:1 12:1197831 16:1 19:1 20:3 21:20 22:4 23:2021
189 0:22 1:0.5800000000000001 2:39 6:1 9:1 12:1197831 16:1 18:1 20:42 21:15 22:8 23:2020
300 0:27 1:0.35 2:25 3:1 9:1 12:1197831 16:1 18:1 20:3 21:20 22:4 23:2021
94 0:27 1:0.5 2:23 9:1 12:1197831 16:1 18:1 20:3 21:19 22:9 23:2021
285 0:22 1:0.42 2:32 3:1 9:1 12:1197831 16:1 19:1 20:42 21:25 22:8 23:2020
238 0:22 1:0.45 2:42 3:1 9:1 12:1197831 16:1 18:1 20:42 21:19 22:8 23:2020
109 0:24 1:0.45 2:20 6:1 9:1 12:1185732 16:1 19:1 20:23 21:18 22:10 23:2021
950 0:22 1:0.35 2:45 3:1 9:1 12:1197831 16:1 19:1 20:42 21:25 22:8 23:2020
195 0:22 1:0.32 2:30 9:1 12:1197831 16:1 19:1 20:42 21:24 22:10 23:2020
285 0:22 1:0.48 2:44 3:1 9:1 12:1197831 16:1 18:1 20:42 21:27 22:10 23:2020
425 0:27 1:0.35 2:35 3:1 9:1 12:1197831 16:1 18:1 20:3 21:21 22:6 23:2021
182 0:27 1:0.52 2:48 4:1 9:1 12:1197831 16:1 18:1 20:3 21:19 22:9 23:2021
88 0:27 1:0.52 2:14 6:1 9:1 12:1197831 16:1 18:1 20:3 21:19 22:9 23:2021
158 0:24 1:0.42 2:35 9:1 12:1185732 16:1 19:1 20:23 21:17 22:8 23:2021
90 0:27 1:0.47 2:24 6:1 9:1 12:1197831 16:1 19:1 20:3 21:19 22:5 23:2021
181 0:27 1:0.54 2:39 4:1 9:1 12:1197831 16:1 18:1 20:3 21:19 22:5 23:2021
180 0:22 1:0.35 2:35 9:1 12:1197831 16:1 19:1 20:42 21:16 22:8 23:2020
104 0:27 1:0.42 2:12 6:1 9:1 12:1197831 16:1 19:1 20:3 21:19 22:9 23:2021
350 0:24 1:0.35 2:35.00000000000001 9:1 12:1185732 16:1 18:1 20:23 21:18 22:10 23:2021
950 0:22 1:0.35 2:40 4:1 9:1 12:1197831 16:1 19:1 20:42 21:24 22:8 23:2020
900 0:22 1:0.5 2:55.00000000000001 5:1 9:1 12:1197831 16:1 19:1 20:42 21:31 22:10 23:2020
950 0:22 1:0.35 2:45 3:1 9:1 12:1197831 16:1 19:1 20:42 21:27 22:10 23:2020
306 0:22 1:0.4 2:31 3:1 9:1 12:1197831 16:1 19:1 20:42 21:21 22:10 23:2020
91 0:27 1:0.37 2:21 9:1 12:1197831 16:1 19:1 20:3 21:21 22:10 23:2021
179 0:24 1:0.44 2:37 7:1 9:1 12:1185732 16:1 19:1 20:23 21:17 22:8 23:2021
400 0:24 1:0.4 2:20.00000000000001 6:1 9:1 12:1185732 16:1 18:1 20:23 21:16 22:9 23:2021
750 0:27 1:0.4 2:60 4:1 9:1 12:1197831 16:1 18:1 20:3 21:20 22:8 23:2021
700 0:22 1:0.45 2:40 6:1 9:1 12:1197831 16:1 19:1 20:42 21:15 22:8 23:2020
98 0:24 1:0.54 2:24 7:1 9:1 12:1185732 16:1 18:1 20:23 21:18 22:10 23:2021
900 0:22 1:0.5 2:50 5:1 9:1 12:1197831 16:1 19:1 20:42 21:4 22:9 23:2020
305 0:22 1:0.37 2:27 4:1 9:1 12:1197831 16:1 19:1 20:42 21:30 22:8 23:2020
124 0:27 1:0.44 2:29 6:1 9:1 12:1197831 16:1 19:1 20:3 21:21 22:6 23:2021
132 0:27 1:0.4 2:14 3:1 9:1 12:1197831 16:1 19:1 20:3 21:21 22:10 23:2021
247 0:22 1:0.62 2:51 5:1 9:1 12:1197831 16:1 18:1 20:42 21:25 22:10 23:2020
206 0:22 1:0.36 2:36 9:1 12:1197831 16:1 19:1 20:42 21:9 22:9 23:2020
825 0:24 1:0.4 2:60 4:1 9:1 12:1185732 16:1 18:1 20:23 21:17 22:8 23:2021
675 0:22 1:0.45 2:50 6:1 9:1 12:1197831 16:1 19:1 20:42 21:23 22:10 23:2020
81 0:27 1:0.49 2:24 3:1 9:1 12:1197831 16:1 18:1 20:3 21:20 22:4 23:2021
375 0:24 1:0.4 2:25.00000000000001 7:1 9:1 12:1185732 16:1 18:1 20:23 21:18 22:10 23:2021
800 0:22 1:0.35 2:45 4:1 9:1 12:1197831 16:1 19:1 20:42 21:11 22:9 23:2020
203 0:22 1:0.55 2:48 6:1 9:1 12:1197831 16:1 18:1 20:42 21:23 22:10 23:2020
132 0:24 1:0.38 2:22 9:1 12:1185732 16:1 19:1 20:23 21:16 22:9 23:2021
243 0:22 1:0.49 2:43 3:1 9:1 12:1197831 16:1 18:1 20:42 21:21 22:10 23:2020
116 0:27 1:0.39 2:37 9:1 12:1197831 16:1 19:1 20:3 21:21 22:6 23:2021
375 0:27 1:0.35 2:50 9:1 12:1197831 16:1 18:1 20:3 21:20 22:8 23:2021
525 0:27 1:0.35 2:50 3:1 9:1 12:1197831 16:1 18:1 20:3 21:19 22:7 23:2021
850 0:22 1:0.35 2:50 7:1 9:1 12:1197831 16:1 19:1 20:42 21:28 22:10 23:2020
261 0:22 1:0.62 2:53 5:1 9:1 12:1197831 16:1 18:1 20:42 21:31 22:10 23:2020
550 0:27 1:0.4 2:55.00000000000001 5:1 9:1 12:1197831 16:1 18:1 20:3 21:20 22:8 23:2021
78 0:27 1:0.53 2:34 6:1 9:1 12:1197831 16:1 18:1 20:3 21:19 22:5 23:2021
450 0:27 1:0.4 2:45 7:1 9:1 12:1197831 16:1 18:1 20:3 21:19 22:7 23:2021
645 0:27 1:0.4 2:20 4:1 9:1 12:1197831 16:1 18:1 20:3 21:19 22:3 23:2021
600 0:27 1:0.4 2:65 5:1 9:1 12:1197831 16:1 18:1 20:3 21:19 22:7 23:2021
203 0:22 1:0.5700000000000001 2:38 6:1 9:1 12:1197831 16:1 18:1 20:42 21:21 22:8 23:2020
200 0:22 1:0.5 2:37 6:1 9:1 12:1197831 16:1 19:1 20:42 21:8 22:9 23:2020
111 0:27 1:0.39 2:32 9:1 12:1197831 16:1 19:1 20:3 21:19 22:5 23:2021
525 0:22 1:0.3 2:45 9:1 12:1197831 16:1 19:1 20:42 21:10 22:8 23:2020
108 0:24 1:0.48 2:29 9:1 12:1185732 16:1 18:1 20:23 21:16 22:9 23:2021
400 0:27 1:0.4 2:40 7:1 9:1 12:1197831 16:1 18:1 20:3 21:21 22:6 23:2021
375 0:27 1:0.35 2:54.99999999999999 9:1 12:1197831 16:1 18:1 20:3 21:21 22:6 23:2021
75 0:27 1:0.52 2:14 7:1 9:1 12:1197831 16:1 18:1 20:3 21:20 22:4 23:2021
145 0:27 1:0.42 2:16 5:1 9:1 12:1197831 16:1 19:1 20:3 21:21 22:2 23:2021
140 0:27 1:0.44 2:32 7:1 9:1 12:1197831 16:1 19:1 20:3 21:19 22:7 23:2021
925 0:22 1:0.35 2:40 3:1 9:1 12:1197831 16:1 19:1 20:42 21:13 22:8 23:2020
221 0:27 1:0.43 2:35 4:1 9:1 12:1197831 16:1 19:1 20:3 21:19 22:9 23:2021
126 0:27 1:0.48 2:39 3:1 9:1 12:1197831 16:1 18:1 20:3 21:19 22:9 23:2021
255 0:22 1:0.49 2:47 7:1 9:1 12:1197831 16:1 18:1 20:42 21:28 22:10 23:2020
188 0:22 1:0.47 2:48 7:1 9:1 12:1197831 16:1 18:1 20:42 21:13 22:9 23:2020
950 0:22 1:0.5 2:40 5:1 9:1 12:1197831 16:1 19:1 20:42 21:17 22:8 23:2020
295 0:22 1:0.41 2:28 4:1 9:1 12:1197831 16:1 19:1 20:42 21:18 22:8 23:2020
65 0:27 1:0.46 2:32 9:1 12:1197831 16:1 18:1 20:3 21:19 22:3 23:2021
700 0:22 1:0.45 2:50 6:1 9:1 12:1197831 16:1 19:1 20:42 21:29 22:10 23:2020
323 0:22 1:0.42 2:33 3:1 9:1 12:1197831 16:1 19:1 20:42 21:19 22:8 23:2020
165 0:24 1:0.37 2:17 3:1 9:1 12:1185732 16:1 19:1 20:23 21:18 22:10 23:2021
425 0:27 1:0.35 2:60 9:1 12:1197831 16:1 18:1 20:3 21:19 22:7 23:2021
850 0:22 1:0.5 2:55.00000000000001 5:1 9:1 12:1197831 16:1 19:1 20:42 21:25 22:10 23:2020
232 0:22 1:0.49 2:37 7:1 9:1 12:1197831 16:1 18:1 20:42 21:20 22:8 23:2020
625 0:22 1:0.45 2:50 6:1 9:1 12:1197831 16:1 19:1 20:42 21:8 22:9 23:2020
99 0:27 1:0.46 2:16 7:1 9:1 12:1197831 16:1 19:1 20:3 21:21 22:10 23:2021
625 0:24 1:0.5 2:55.00000000000001 5:1 9:1 12:1185732 16:1 18:1 20:23 21:17 22:8 23:2021
300 0:27 1:0.4 2:20.00000000000001 7:1 9:1 12:1197831 16:1 18:1 20:3 21:21 22:10 23:2021
825 0:22 1:0.35 2:50 7:1 9:1 12:1197831 16:1 19:1 20:42 21:22 22:10 23:2020
124 0:24 1:0.53 2:48 6:1 9:1 12:1185732 16:1 18:1 20:23 21:16 22:7 23:2021
374 0:22 1:0.41 2:29 7:1 9:1 12:1197831 16:1 19:1 20:42 21:26 22:8 23:2020
276 0:22 1:0.63 2:37 5:1 9:1 12:1197831 16:1 18:1 20:42 21:17 22:8 23:2020
224 0:22 1:0.52 2:28 6:1 9:1 12:1197831 16:1 19:1 20:42 21:27 22:8 23:2020
206 0:24 1:0.55 2:42 5:1 9:1 12:1185732 16:1 19:1 20:23 21:17 22:8 23:2021
198 0:24 1:0.41 2:44 3:1 9:1 12:1185732 16:1 19:1 20:23 21:17 22:8 23:2021
206 0:22 1:0.48 2:47 7:1 9:1 12:1197831 16:1 18:1 20:42 21:22 22:10 23:2020
102 0:27 1:0.51 2:24 5:1 9:1 12:1197831 16:1 18:1 20:3 21:19 22:3 23:2021
250 0:22 1:0.64 2:47 5:1 9:1 12:1197831 16:1 18:1 20:42 21:23 22:8 23:2020
850 0:22 1:0.5 2:55.00000000000001 5:1 9:1 12:1197831 16:1 19:1 20:42 21:10 22:9 23:2020
228 0:22 1:0.34 2:35 9:1 12:1197831 16:1 19:1 20:42 21:3 22:9 23:2020
1100 0:22 1:0.35 2:40 7:1 9:1 12:1197831 16:1 19:1 20:42 21:1 22:9 23:2020
650 0:22 1:0.3 2:45 9:1 12:1197831 16:1 19:1 20:42 21:30 22:10 23:2020
181 0:27 1:0.53 2:18 4:1 9:1 12:1197831 16:1 18:1 20:3 21:19 22:3 23:2021
240 0:22 1:0.37 2:23 7:1 9:1 12:1197831 16:1 19:1 20:42 21:14 22:8 23:2020
550 0:27 1:0.4 2:60 5:1 9:1 12:1197831 16:1 18:1 20:3 21:21 22:6 23:2021
289 0:22 1:0.5700000000000001 2:44 5:1 9:1 12:1197831 16:1 19:1 20:42 21:25 22:10 23:2020
209 0:24 1:0.53 2:49 5:1 9:1 12:1185732 16:1 19:1 20:23 21:16 22:7 23:2021
150 0:24 1:0.48 2:59 9:1 12:1185732 16:1 18:1 20:23 21:16 22:7 23:2021
100 0:24 1:0.55 2:19 6:1 9:1 12:1185732 16:1 18:1 20:23 21:16 22:9 23:2021
350 0:27 1:0.4 2:35 7:1 9:1 12:1197831 16:1 18:1 20:3 21:19 22:5 23:2021
104 0:27 1:0.5 2:39 6:1 9:1 12:1197831 16:1 18:1 20:3 21:20 22:8 23:2021
400 0:24 1:0.35 2:30 9:1 12:1185732 16:1 18:1 20:23 21:16 22:9 23:2021
350 0:24 1:0.4 2:25.00000000000001 6:1 9:1 12:1185732 16:1 18:1 20:23 21:18 22:10 23:2021
325 0:27 1:0.35 2:20 3:1 9:1 12:1197831 16:1 18:1 20:3 21:19 22:3 23:2021
600 0:24 1:0.35 2:55.00000000000001 3:1 9:1 12:1185732 16:1 18:1 20:23 21:17 22:8 23:2021
78 0:27 1:0.5 2:19 7:1 9:1 12:1197831 16:1 18:1 20:3 21:21 22:10 23:2021
116 0:27 1:0.51 2:28 5:1 9:1 12:1197831 16:1 18:1 20:3 21:20 22:4 23:2021
106 0:27 1:0.49 2:32 3:1 9:1 12:1197831 16:1 18:1 20:3 21:21 22:6 23:2021
272 0:22 1:0.39 2:31 4:1 9:1 12:1197831 16:1 19:1 20:42 21:11 22:9 23:2020
123 0:27 1:0.47 2:11 7:1 9:1 12:1197831 16:1 19:1 20:3 21:19 22:9 23:2021
116 0:27 1:0.54 2:41 6:1 9:1 12:1197831 16:1 18:1 20:3 21:19 22:7 23:2021
675 0:24 1:0.4 2:35.00000000000001 4:1 9:1 12:1185732 16:1 18:1 20:23 21:18 22:10 23:2021
298 0:22 1:0.38 2:38 7:1 9:1 12:1197831 16:1 19:1 20:42 21:28 22:10 23:2020
350 0:22 1:0.5700000000000001 2:38 5:1 9:1 12:1197831 16:1 19:1 20:42 21:23 22:8 23:2020
287 0:22 1:0.42 2:30 3:1 9:1 12:1197831 16:1 19:1 20:42 21:13 22:8 23:2020
193 0:27 1:0.47 2:40 5:1 9:1 12:1197831 16:1 19:1 20:3 21:20 22:8 23:2021
325 0:27 1:0.4 2:15.00000000000001 6:1 9:1 12:1197831 16:1 18:1 20:3 21:19 22:9 23:2021
238 0:22 1:0.46 2:42 3:1 9:1 12:1197831 16:1 18:1 20:42 21:25 22:8 23:2020
106 0:27 1:0.45 2:19 3:1 9:1 12:1197831 16:1 18:1 20:3 21:21 22:10 23:2021
234 0:22 1:0.49 2:43 4:1 9:1 12:1197831 16:1 18:1 20:42 21:20 22:10 23:2020
275 0:27 1:0.35 2:30.00000000000001 9:1 12:1197831 16:1 18:1 20:3 21:21 22:10 23:2021
115 0:27 1:0.54 2:19 5:1 9:1 12:1197831 16:1 18:1 20:3 21:21 22:2 23:2021
150 0:27 1:0.54 2:63 5:1 9:1 12:1197831 16:1 18:1 20:3 21:19 22:7 23:2021
850 0:22 1:0.35 2:45 3:1 9:1 12:1197831 16:1 19:1 20:42 21:6 22:9 23:2020
525 0:24 1:0.4 2:50 7:1 9:1 12:1185732 16:1 18:1 20:23 21:17 22:8 23:2021
600 0:24 1:0.35 2:55.00000000000001 3:1 9:1 12:1185732 16:1 18:1 20:23 21:16 22:7 23:2021
143 0:24 1:0.43 2:33 6:1 9:1 12:1185732 16:1 19:1 20:23 21:16 22:7 23:2021
169 0:22 1:0.4 2:41 9:1 12:1197831 16:1 18:1 20:42 21:3 22:9 23:2020
147 0:24 1:0.52 2:48 7:1 9:1 12:1185732 16:1 18:1 20:23 21:17 22:8 23:2021
215 0:24 1:0.54 2:56 4:1 9:1 12:1185732 16:1 18:1 20:23 21:17 22:8 23:2021
169 0:22 1:0.45 2:41 9:1 12:1197831 16:1 18:1 20:42 21:22 22:8 23:2020
475 0:24 1:0.4 2:50 6:1 9:1 12:1185732 16:1 18:1 20:23 21:16 22:7 23:2021
98 0:27 1:0.45 2:20 3:1 9:1 12:1197831 16:1 18:1 20:3 21:19 22:3 23:2021
113 0:27 1:0.49 2:48 9:1 12:1197831 16:1 18:1 20:3 21:20 22:8 23:2021
174 0:27 1:0.54 2:23 4:1 9:1 12:1197831 16:1 18:1 20:3 21:20 22:4 23:2021
600 0:27 1:0.4 2:25 4:1 9:1 12:1197831 16:1 18:1 20:3 21:20 22:4 23:2021
122 0:24 1:0.45 2:46 9:1 12:1185732 16:1 18:1 20:23 21:17 22:8 23:2021
225 0:27 1:0.4 2:20 6:1 9:1 12:1197831 16:1 18:1 20:3 21:20 22:4 23:2021
525 0:24 1:0.35 2:45.00000000000001 3:1 9:1 12:1185732 16:1 18:1 20:23 21:16 22:9 23:2021
270 0:22 1:0.54 2:39 5:1 9:1 12:1197831 16:1 19:1 20:42 21:4 22:9 23:2020
105 0:24 1:0.5 2:23 6:1 9:1 12:1185732 16:1 18:1 20:23 21:18 22:10 23:2021
221 0:22 1:0.32 2:29 9:1 12:1197831 16:1 19:1 20:42 21:22 22:8 23:2020
88 0:27 1:0.52 2:14 7:1 9:1 12:1197831 16:1 18:1 20:3 21:19 22:9 23:2021
150 0:27 1:0.5 2:27 4:1 9:1 12:1197831 16:1 18:1 20:3 21:21 22:10 23:2021
675 0:24 1:0.5 2:65 5:1 9:1 12:1185732 16:1 18:1 20:23 21:16 22:7 23:2021
169 0:22 1:0.45 2:42 9:1 12:1197831 16:1 18:1 20:42 21:30 22:10 23:2020
333 0:22 1:0.4 2:32 4:1 9:1 12:1197831 16:1 19:1 20:42 21:26 22:10 23:2020
72 0:27 1:0.53 2:19 6:1 9:1 12:1197831 16:1 18:1 20:3 21:21 22:10 23:2021
195 0:22 1:0.45 2:42 9:1 12:1197831 16:1 18:1 20:42 21:24 22:10 23:2020
70 0:27 1:0.5 2:18 6:1 9:1 12:1197831 16:1 18:1 20:3 21:21 22:2 23:2021
425 0:27 1:0.4 2:44.99999999999999 5:1 9:1 12:1197831 16:1 18:1 20:3 21:19 22:5 23:2021
305 0:22 1:0.38 2:33 3:1 9:1 12:1197831 16:1 19:1 20:42 21:31 22:8 23:2020
196 0:22 1:0.4 2:41 9:1 12:1197831 16:1 18:1 20:42 21:28 22:8 23:2020
85 0:27 1:0.47 2:42 9:1 12:1197831 16:1 18:1 20:3 21:19 22:5 23:2021
210 0:22 1:0.6 2:36 6:1 9:1 12:1197831 16:1 18:1 20:42 21:27 22:8 23:2020
111 0:27 1:0.39 2:18 9:1 12:1197831 16:1 19:1 20:3 21:19 22:9 23:2021
233 0:22 1:0.54 2:43 5:1 9:1 12:1197831 16:1 19:1 20:42 21:16 22:9 23:2020
132 0:27 1:0.45 2:29 6:1 9:1 12:1197831 16:1 19:1 20:3 21:20 22:8 23:2021
325 0:27 1:0.35 2:25.00000000000001 9:1 12:1197831 16:1 18:1 20:3 21:19 22:9 23:2021
158 0:24 1:0.41 2:33 3:1 9:1 12:1185732 16:1 19:1 20:23 21:16 22:9 23:2021
128 0:24 1:0.52 2:39 6:1 9:1 12:1185732 16:1 18:1 20:23 21:17 22:8 23:2021
123 0:24 1:0.5 2:19 7:1 9:1 12:1185732 16:1 18:1 20:23 21:16 22:9 23:2021
204 0:22 1:0.47 2:36 6:1 9:1 12:1197831 16:1 19:1 20:42 21:14 22:9 23:2020
500 0:24 1:0.5 2:35.00000000000001 5:1 9:1 12:1185732 16:1 18:1 20:23 21:16 22:9 23:2021
225 0:22 1:0.48 2:33 7:1 9:1 12:1197831 16:1 18:1 20:42 21:14 22:8 23:2020
650 0:27 1:0.4 2:50 4:1 9:1 12:1197831 16:1 18:1 20:3 21:19 22:9 23:2021
