137 0:21 1:0.42 2:36 4:1 11:1 12:1128299 15:1 18:1 20:10 21:17 22:2 23:2021
725 0:7 1:0.55 2:60 5:1 11:1 12:1197831 15:1 18:1 20:11 21:8 22:8 23:2021
115 0:21 1:0.43 2:38 4:1 11:1 12:1128299 15:1 18:1 20:10 21:17 22:1 23:2021
91 0:7 1:0.48 2:32 11:1 12:1197831 15:1 18:1 20:11 21:4 22:10 23:2021
675 0:7 1:0.4 2:60 7:1 11:1 12:1197831 15:1 18:1 20:11 21:5 22:9 23:2021
163 0:7 1:0.67 2:63 5:1 11:1 12:1197831 15:1 18:1 20:11 21:5 22:11 23:2021
124 0:1 1:0.46 2:27 3:1 11:1 12:1128299 15:1 19:1 20:30 21:13 22:2 23:2021
625 0:7 1:0.4 2:55.00000000000001 3:1 11:1 12:1197831 15:1 18:1 20:11 21:5 22:9 23:2021
500 0:1 1:0.35 2:60.00000000000001 7:1 11:1 12:1128299 15:1 18:1 20:30 21:25 22:12 23:2021
450 0:7 1:0.5 2:60 6:1 11:1 12:1197831 15:1 18:1 20:11 21:5 22:11 23:2021
104 0:1 1:0.5 2:37 7:1 11:1 12:1128299 15:1 18:1 20:30 21:13 22:2 23:2021
475 0:21 1:0.45 2:50 5:1 11:1 12:1128299 15:1 19:1 20:10 21:17 22:1 23:2021
200 0:7 1:0.5800000000000001 2:36 5:1 11:1 12:1197831 15:1 19:1 20:11 21:5 22:9 23:2021
123 0:21 1:0.41 2:45 7:1 11:1 12:1128299 15:1 18:1 20:10 21:17 22:1 23:2021
140 0:1 1:0.32 2:28 5:1 11:1 12:1128299 15:1 19:1 20:30 21:13 22:1 23:2021
219 0:7 1:0.4299999999999999 2:38 3:1 11:1 12:1197831 15:1 19:1 20:11 21:5 22:9 23:2021
500 0:1 1:0.35 2:60.00000000000001 6:1 11:1 12:1128299 15:1 18:1 20:30 21:25 22:12 23:2021
140 0:1 1:0.47 2:27 3:1 11:1 12:1128299 15:1 19:1 20:30 21:13 22:1 23:2021
101 0:7 1:0.65 2:44 6:1 11:1 12:1197831 15:1 18:1 20:11 21:4 22:10 23:2021
210 0:7 1:0.42 2:42 7:1 11:1 12:1197831 15:1 19:1 20:11 21:5 22:11 23:2021
75 0:1 1:0.4 2:35 11:1 12:1128299 15:1 19:1 20:30 21:13 22:1 23:2021
475 0:7 1:0.35 2:55.00000000000001 11:1 12:1197831 15:1 18:1 20:11 21:8 22:8 23:2021
625 0:7 1:0.55 2:50 5:1 11:1 12:1197831 15:1 18:1 20:11 21:5 22:9 23:2021
400 0:7 1:0.35 2:55.00000000000001 11:1 12:1197831 15:1 18:1 20:11 21:5 22:9 23:2021
142 0:7 1:0.66 2:42 5:1 11:1 12:1197831 15:1 18:1 20:11 21:4 22:10 23:2021
133 0:7 1:0.46 2:52 11:1 12:1197831 15:1 18:1 20:11 21:8 22:8 23:2021
145 0:1 1:0.46 2:55 6:1 11:1 12:1128299 15:1 18:1 20:30 21:25 22:12 23:2021
68 0:21 1:0.3 2:54 11:1 12:1128299 15:1 18:1 20:10 21:17 22:1 23:2021
675 0:7 1:0.4 2:35 3:1 11:1 12:1197831 15:1 18:1 20:11 21:5 22:11 23:2021
188 0:7 1:0.52 2:50 3:1 11:1 12:1197831 15:1 18:1 20:11 21:5 22:9 23:2021
223 0:7 1:0.4299999999999999 2:28 3:1 11:1 12:1197831 15:1 19:1 20:11 21:5 22:11 23:2021
104 0:7 1:0.46 2:50 11:1 12:1197831 15:1 18:1 20:11 21:5 22:9 23:2021
166 0:7 1:0.42 2:39 11:1 12:1197831 15:1 19:1 20:11 21:8 22:8 23:2021
149 0:7 1:0.38 2:41 11:1 12:1197831 15:1 19:1 20:11 21:5 22:11 23:2021
300 0:1 1:0.4 2:40 6:1 11:1 12:1128299 15:1 18:1 20:30 21:13 22:1 23:2021
116 0:7 1:0.63 2:55 6:1 11:1 12:1197831 15:1 18:1 20:11 21:5 22:9 23:2021
131 0:1 1:0.51 2:29 4:1 11:1 12:1128299 15:1 18:1 20:30 21:13 22:1 23:2021
135 0:21 1:0.35 2:74 7:1 11:1 12:1128299 15:1 18:1 20:10 21:9 22:12 23:2021
111 0:21 1:0.35 2:49 3:1 11:1 12:1128299 15:1 18:1 20:10 21:17 22:2 23:2021
450 0:1 1:0.25 2:40 5:1 11:1 12:1128299 15:1 18:1 20:30 21:13 22:1 23:2021
75 0:1 1:0.5 2:39 6:1 11:1 12:1128299 15:1 18:1 20:30 21:13 22:1 23:2021
128 0:1 1:0.33 2:55 11:1 12:1128299 15:1 19:1 20:30 21:25 22:12 23:2021
123 0:7 1:0.39 2:25 11:1 12:1197831 15:1 19:1 20:11 21:4 22:10 23:2021
176 0:7 1:0.5 2:50 4:1 11:1 12:1197831 15:1 18:1 20:11 21:5 22:9 23:2021
189 0:7 1:0.52 2:32 3:1 11:1 12:1197831 15:1 18:1 20:11 21:5 22:11 23:2021
675 0:7 1:0.4 2:35 4:1 11:1 12:1197831 15:1 18:1 20:11 21:5 22:11 23:2021
173 0:1 1:0.27 2:56 5:1 11:1 12:1128299 15:1 19:1 20:30 21:25 22:12 23:2021
99 0:1 1:0.42 2:28 6:1 11:1 12:1128299 15:1 19:1 20:30 21:13 22:1 23:2021
450 0:1 1:0.4 2:40 3:1 11:1 12:1128299 15:1 18:1 20:30 21:13 22:1 23:2021
145 0:1 1:0.53 2:29 4:1 11:1 12:1128299 15:1 18:1 20:30 21:13 22:2 23:2021
135 0:1 1:0.51 2:39 3:1 11:1 12:1128299 15:1 18:1 20:30 21:13 22:1 23:2021
122 0:7 1:0.61 2:54 6:1 11:1 12:1197831 15:1 18:1 20:11 21:5 22:11 23:2021
400 0:7 1:0.5 2:60 6:1 11:1 12:1197831 15:1 18:1 20:11 21:5 22:9 23:2021
116 0:7 1:0.53 2:35 6:1 11:1 12:1197831 15:1 19:1 20:11 21:4 22:10 23:2021
131 0:1 1:0.35 2:72 5:1 11:1 12:1128299 15:1 18:1 20:30 21:25 22:12 23:2021
250 0:1 1:0.35 2:45.00000000000001 11:1 12:1128299 15:1 18:1 20:30 21:13 22:1 23:2021
181 0:7 1:0.67 2:49 5:1 11:1 12:1197831 15:1 18:1 20:11 21:5 22:9 23:2021
117 0:1 1:0.39 2:36 5:1 11:1 12:1128299 15:1 18:1 20:30 21:13 22:1 23:2021
167 0:7 1:0.51 2:36 4:1 11:1 12:1197831 15:1 18:1 20:11 21:4 22:10 23:2021
112 0:1 1:0.55 2:37 3:1 11:1 12:1128299 15:1 18:1 20:30 21:13 22:2 23:2021
194 0:7 1:0.5900000000000001 2:51 5:1 11:1 12:1197831 15:1 19:1 20:11 21:5 22:11 23:2021
179 0:7 1:0.5900000000000001 2:34 5:1 11:1 12:1197831 15:1 19:1 20:11 21:4 22:10 23:2021
203 0:7 1:0.45 2:43 7:1 11:1 12:1197831 15:1 19:1 20:11 21:5 22:9 23:2021
600 0:7 1:0.4 2:60 7:1 11:1 12:1197831 15:1 18:1 20:11 21:5 22:11 23:2021
425 0:7 1:0.35 2:54.99999999999999 11:1 12:1197831 15:1 18:1 20:11 21:5 22:11 23:2021
525 0:21 1:0.3 2:40 4:1 11:1 12:1128299 15:1 19:1 20:10 21:17 22:2 23:2021
