675 0:25 1:0.4 2:20 4:1 9:1 12:1197831 15:1 19:1 20:41 21:28 22:3 23:2021
273 0:15 1:0.5499999999999999 2:46 7:1 9:1 12:1197831 15:1 18:1 20:42 21:24 22:9 23:2021
525 0:15 1:0.35 2:55.00000000000001 9:1 12:1197831 15:1 19:1 20:42 21:26 22:9 23:2021
135 0:15 1:0.63 2:32 5:1 9:1 12:1197831 15:1 18:1 20:42 21:28 22:8 23:2021
128 0:15 1:0.4 2:30 9:1 12:1197831 15:1 19:1 20:42 21:8 22:10 23:2021
650 0:25 1:0.4 2:40 7:1 9:1 12:1197831 15:1 19:1 20:41 21:11 22:4 23:2021
233 0:25 1:0.51 2:29 4:1 9:1 12:1197831 15:1 19:1 20:41 21:21 22:4 23:2021
203 0:6 1:0.5599999999999999 2:49 3:1 9:1 12:1197831 15:1 18:1 21:1 22:9 23:2021
119 0:6 1:0.7100000000000001 2:46 6:1 9:1 12:1197831 15:1 18:1 21:15 22:9 23:2021
350 0:6 1:0.45 2:45 9:1 12:1197831 15:1 19:1 21:22 22:9 23:2021
190 0:15 1:0.5800000000000001 2:39 5:1 9:1 12:1197831 15:1 19:1 20:42 21:9 22:10 23:2021
182 0:22 1:0.49 2:32 7:1 9:1 12:1197831 15:1 18:1 20:42 21:2 22:8 23:2020
700 0:22 1:0.35 2:35 7:1 9:1 12:1197831 15:1 19:1 20:42 21:2 22:8 23:2020
800 0:15 1:0.4 2:55.00000000000001 3:1 9:1 12:1197831 15:1 19:1 20:42 21:23 22:9 23:2021
550 0:6 1:0.6000000000000001 2:65 6:1 9:1 12:1197831 15:1 19:1 21:9 22:10 23:2021
196 0:22 1:0.63 2:34 5:1 9:1 12:1197831 15:1 18:1 20:42 21:30 22:7 23:2020
189 0:25 1:0.5 2:14 4:1 9:1 12:1197831 15:1 18:1 20:41 21:3 22:4 23:2021
143 0:6 1:0.7500000000000001 2:36 5:1 9:1 12:1197831 15:1 18:1 21:29 22:9 23:2021
195 0:25 1:0.47 2:31 3:1 9:1 12:1197831 15:1 19:1 20:41 21:23 22:3 23:2021
575 0:24 1:0.35 2:60.00000000000001 3:1 9:1 12:1185732 15:1 18:1 20:23 21:16 22:12 23:2021
196 0:25 1:0.5599999999999999 2:29 4:1 9:1 12:1197831 15:1 18:1 20:41 21:9 22:5 23:2021
700 0:22 1:0.5 2:35 5:1 9:1 12:1197831 15:1 19:1 20:42 21:30 22:7 23:2020
625 0:6 1:0.4999999999999999 2:20 3:1 9:1 12:1197831 15:1 19:1 21:1 22:10 23:2021
182 0:15 1:0.49 2:27 6:1 9:1 12:1197831 15:1 19:1 20:42 21:7 22:9 23:2021
202 0:25 1:0.51 2:42 3:1 9:1 12:1197831 15:1 18:1 20:41 21:10 22:4 23:2021
153 0:15 1:0.54 2:27 5:1 9:1 12:1197831 15:1 19:1 20:42 21:28 22:8 23:2021
206 0:25 1:0.58 2:43 3:1 9:1 12:1197831 15:1 18:1 20:41 21:16 22:4 23:2021
196 0:25 1:0.6100000000000001 2:32 6:1 9:1 12:1197831 15:1 19:1 20:41 21:18 22:4 23:2021
775 0:15 1:0.55 2:60 5:1 9:1 12:1197831 15:1 19:1 20:42 21:27 22:9 23:2021
231 0:15 1:0.52 2:56 3:1 9:1 12:1197831 15:1 18:1 20:42 21:17 22:10 23:2021
113 0:6 1:0.66 2:18 6:1 9:1 12:1197831 15:1 18:1 21:22 22:8 23:2021
188 0:6 1:0.7900000000000001 2:56 5:1 9:1 12:1197831 15:1 18:1 21:5 22:10 23:2021
194 0:24 1:0.53 2:68 4:1 9:1 12:1185732 15:1 18:1 20:23 21:16 22:12 23:2021
525 0:24 1:0.4 2:60.00000000000001 7:1 9:1 12:1185732 15:1 18:1 20:23 21:16 22:12 23:2021
825 0:25 1:0.45 2:45 3:1 9:1 12:1197831 15:1 19:1 20:41 21:16 22:4 23:2021
161 0:25 1:0.65 2:37 6:1 9:1 12:1197831 15:1 18:1 20:41 21:18 22:4 23:2021
254 0:15 1:0.5499999999999999 2:44 7:1 9:1 12:1197831 15:1 18:1 20:42 21:18 22:9 23:2021
280 0:15 1:0.55 2:42 5:1 9:1 12:1197831 15:1 19:1 20:42 21:15 22:9 23:2021
625 0:15 1:0.4 2:40 4:1 9:1 12:1197831 15:1 19:1 20:42 21:4 22:10 23:2021
123 0:6 1:0.59 2:50 9:1 12:1197831 15:1 18:1 21:16 22:9 23:2021
325 0:15 1:0.3 2:35 9:1 12:1197831 15:1 19:1 20:42 21:2 22:9 23:2021
280 0:15 1:0.41 2:40 3:1 9:1 12:1197831 15:1 19:1 20:42 21:11 22:9 23:2021
155 0:15 1:0.38 2:20 7:1 9:1 12:1197831 15:1 19:1 20:42 21:25 22:8 23:2021
105 0:24 1:0.45 2:24 3:1 9:1 12:1197831 15:1 18:1 20:23 21:21 22:2 23:2021
175 0:22 1:0.6 2:34 6:1 9:1 12:1197831 15:1 18:1 20:42 21:28 22:7 23:2020
281 0:15 1:0.47 2:46 4:1 9:1 12:1197831 15:1 19:1 20:42 21:16 22:10 23:2021
233 0:25 1:0.57 2:41 4:1 9:1 12:1197831 15:1 18:1 20:41 21:21 22:4 23:2021
256 0:25 1:0.47 2:28 4:1 9:1 12:1197831 15:1 19:1 20:41 21:9 22:4 23:2021
900 0:22 1:0.35 2:40 3:1 9:1 12:1197831 15:1 19:1 20:42 21:7 22:8 23:2020
240 0:25 1:0.4399999999999999 2:20 3:1 9:1 12:1197831 15:1 19:1 20:41 21:4 22:4 23:2021
176 0:15 1:0.47 2:44 7:1 9:1 12:1197831 15:1 18:1 20:42 21:12 22:9 23:2021
425 0:15 1:0.45 2:30 6:1 9:1 12:1197831 15:1 19:1 20:42 21:1 22:9 23:2021
174 0:15 1:0.55 2:43 6:1 9:1 12:1197831 15:1 18:1 20:42 21:13 22:9 23:2021
750 0:6 1:0.45 2:50 3:1 9:1 12:1197831 15:1 19:1 21:1 22:9 23:2021
155 0:6 1:0.47 2:40 9:1 12:1197831 15:1 19:1 21:10 22:10 23:2021
145 0:25 1:0.48 2:43 9:1 12:1197831 15:1 18:1 20:41 21:13 22:4 23:2021
136 0:15 1:0.45 2:28 6:1 9:1 12:1197831 15:1 19:1 20:42 21:20 22:8 23:2021
135 0:15 1:0.49 2:53 9:1 12:1197831 15:1 18:1 20:42 21:2 22:10 23:2021
625 0:15 1:0.4 2:40 3:1 9:1 12:1197831 15:1 19:1 20:42 21:5 22:10 23:2021
204 0:22 1:0.48 2:30 6:1 9:1 12:1197831 15:1 19:1 20:42 21:3 22:8 23:2020
170 0:25 1:0.53 2:24 5:1 9:1 12:1197831 15:1 19:1 20:41 21:15 22:3 23:2021
202 0:25 1:0.67 2:38 5:1 9:1 12:1197831 15:1 18:1 20:41 21:8 22:4 23:2021
625 0:6 1:0.4999999999999999 2:60 7:1 9:1 12:1197831 15:1 19:1 21:20 22:9 23:2021
800 0:15 1:0.35 2:45 4:1 9:1 12:1197831 15:1 19:1 20:42 21:10 22:9 23:2021
157 0:24 1:0.38 2:54 9:1 12:1185732 15:1 19:1 20:23 21:16 22:12 23:2021
145 0:15 1:0.47 2:28 7:1 9:1 12:1197831 15:1 18:1 20:42 21:25 22:8 23:2021
150 0:6 1:0.7700000000000001 2:37 5:1 9:1 12:1197831 15:1 18:1 21:23 22:9 23:2021
450 0:24 1:0.4 2:60.00000000000002 6:1 9:1 12:1185732 15:1 18:1 20:23 21:17 22:11 23:2021
124 0:6 1:0.6 2:32 7:1 9:1 12:1197831 15:1 18:1 21:26 22:9 23:2021
100 0:15 1:0.45 2:36 9:1 12:1197831 15:1 18:1 20:42 21:8 22:10 23:2021
625 0:24 1:0.4 2:30.00000000000001 4:1 9:1 12:1185732 15:1 18:1 20:23 21:17 22:11 23:2021
500 0:6 1:0.55 2:35 6:1 9:1 12:1197831 15:1 19:1 21:28 22:8 23:2021
142 0:25 1:0.6 2:27 6:1 9:1 12:1197831 15:1 18:1 20:41 21:6 22:4 23:2021
195 0:6 1:0.58 2:19 4:1 9:1 12:1197831 15:1 18:1 21:19 22:8 23:2021
125 0:25 1:0.65 2:33 5:1 9:1 12:1197831 15:1 18:1 20:41 21:15 22:3 23:2021
145 0:15 1:0.43 2:45 9:1 12:1197831 15:1 18:1 20:42 21:14 22:9 23:2021
200 0:15 1:0.4 2:19 7:1 9:1 12:1197831 15:1 19:1 20:42 21:6 22:9 23:2021
202 0:25 1:0.4399999999999999 2:26 7:1 9:1 12:1197831 15:1 19:1 20:41 21:11 22:4 23:2021
231 0:15 1:0.4 2:13 4:1 9:1 12:1197831 15:1 19:1 20:42 21:29 22:8 23:2021
775 0:25 1:0.4 2:45 3:1 9:1 12:1197831 15:1 19:1 20:41 21:10 22:4 23:2021
117 0:6 1:0.58 2:27 7:1 9:1 12:1197831 15:1 18:1 21:15 22:8 23:2021
575 0:6 1:0.4999999999999999 2:45.00000000000001 7:1 9:1 12:1197831 15:1 19:1 21:2 22:10 23:2021
264 0:25 1:0.4899999999999999 2:37 3:1 9:1 12:1197831 15:1 19:1 20:41 21:16 22:5 23:2021
475 0:25 1:0.5 2:35 5:1 9:1 12:1197831 15:1 19:1 20:41 21:21 22:3 23:2021
144 0:6 1:0.51 2:20 7:1 9:1 12:1197831 15:1 19:1 21:15 22:8 23:2021
248 0:25 1:0.48 2:39 4:1 9:1 12:1197831 15:1 19:1 20:41 21:15 22:5 23:2021
209 0:25 1:0.4999999999999999 2:40 4:1 9:1 12:1197831 15:1 19:1 20:41 21:27 22:4 23:2021
240 0:6 1:0.8000000000000002 2:56 5:1 9:1 12:1197831 15:1 18:1 21:11 22:9 23:2021
500 0:15 1:0.45 2:35 5:1 9:1 12:1197831 15:1 19:1 20:42 21:22 22:8 23:2021
133 0:25 1:0.64 2:32 5:1 9:1 12:1197831 15:1 18:1 20:41 21:21 22:3 23:2021
475 0:25 1:0.4 2:50 9:1 12:1197831 15:1 19:1 20:41 21:25 22:4 23:2021
350 0:25 1:0.3 2:40 9:1 12:1197831 15:1 19:1 20:41 21:14 22:3 23:2021
306 0:22 1:0.42 2:20 4:1 9:1 12:1197831 15:1 19:1 20:42 21:31 22:7 23:2020
163 0:15 1:0.4 2:32 3:1 9:1 12:1197831 15:1 18:1 20:42 21:18 22:8 23:2021
206 0:6 1:0.6399999999999999 2:44 4:1 9:1 12:1197831 15:1 18:1 21:6 22:9 23:2021
224 0:15 1:0.65 2:43 5:1 9:1 12:1197831 15:1 18:1 20:42 21:9 22:9 23:2021
95 0:6 1:0.7100000000000001 2:58 6:1 9:1 12:1197831 15:1 18:1 21:21 22:9 23:2021
206 0:24 1:0.44 2:22 4:1 9:1 12:1185732 15:1 19:1 20:23 21:17 22:11 23:2021
101 0:25 1:0.64 2:33 6:1 9:1 12:1197831 15:1 18:1 20:41 21:25 22:3 23:2021
206 0:6 1:0.5499999999999999 2:38 4:1 9:1 12:1197831 15:1 19:1 21:18 22:9 23:2021
400 0:25 1:0.55 2:54.99999999999999 6:1 9:1 12:1197831 15:1 19:1 20:41 21:30 22:4 23:2021
450 0:6 1:0.55 2:35 5:1 9:1 12:1197831 15:1 19:1 21:12 22:8 23:2021
190 0:15 1:0.5600000000000001 2:44 6:1 9:1 12:1197831 15:1 19:1 20:42 21:19 22:10 23:2021
725 0:22 1:0.35 2:35 7:1 9:1 12:1197831 15:1 19:1 20:42 21:8 22:8 23:2020
306 0:22 1:0.37 2:23 4:1 9:1 12:1197831 15:1 19:1 20:42 21:6 22:8 23:2020
140 0:25 1:0.5 2:50 9:1 12:1197831 15:1 18:1 20:41 21:19 22:5 23:2021
154 0:15 1:0.6 2:34 6:1 9:1 12:1197831 15:1 18:1 20:42 21:7 22:9 23:2021
400 0:24 1:0.4 2:15.00000000000001 7:1 9:1 12:1197831 15:1 18:1 20:23 21:21 22:2 23:2021
775 0:6 1:0.4999999999999999 2:60 3:1 9:1 12:1197831 15:1 19:1 21:7 22:10 23:2021
158 0:15 1:0.54 2:38 6:1 9:1 12:1197831 15:1 19:1 20:42 21:25 22:9 23:2021
95 0:24 1:0.48 2:34 9:1 12:1197831 15:1 18:1 20:23 21:23 22:1 23:2021
201 0:24 1:0.37 2:44 3:1 9:1 12:1185732 15:1 19:1 20:23 21:16 22:12 23:2021
650 0:25 1:0.4 2:40 3:1 9:1 12:1197831 15:1 19:1 20:41 21:23 22:3 23:2021
525 0:6 1:0.4999999999999999 2:30 4:1 9:1 12:1197831 15:1 19:1 21:24 22:9 23:2021
143 0:6 1:0.7500000000000001 2:63 6:1 9:1 12:1197831 15:1 18:1 21:9 22:10 23:2021
203 0:6 1:0.5499999999999999 2:43 4:1 9:1 12:1197831 15:1 18:1 21:31 22:8 23:2021
117 0:24 1:0.51 2:14 7:1 9:1 12:1197831 15:1 18:1 20:23 21:23 22:1 23:2021
275 0:25 1:0.35 2:40 9:1 12:1197831 15:1 19:1 20:41 21:26 22:3 23:2021
194 0:15 1:0.49 2:29 3:1 9:1 12:1197831 15:1 18:1 20:42 21:5 22:9 23:2021
169 0:6 1:0.6399999999999999 2:18 4:1 9:1 12:1197831 15:1 18:1 21:30 22:9 23:2021
213 0:15 1:0.4399999999999999 2:30 4:1 9:1 12:1197831 15:1 19:1 20:42 21:4 22:10 23:2021
500 0:15 1:0.35 2:30 7:1 9:1 12:1197831 15:1 19:1 20:42 21:25 22:8 23:2021
300 0:15 1:0.3 2:40 9:1 12:1197831 15:1 19:1 20:42 21:27 22:8 23:2021
173 0:6 1:0.5499999999999999 2:36 3:1 9:1 12:1197831 15:1 19:1 21:19 22:9 23:2021
500 0:15 1:0.3 2:50 9:1 12:1197831 15:1 19:1 20:42 21:14 22:9 23:2021
700 0:15 1:0.35 2:30 3:1 9:1 12:1197831 15:1 19:1 20:42 21:30 22:8 23:2021
206 0:6 1:0.47 2:16 4:1 9:1 12:1197831 15:1 19:1 21:7 22:8 23:2021
203 0:6 1:0.8000000000000002 2:68 5:1 9:1 12:1197831 15:1 18:1 21:11 22:10 23:2021
215 0:15 1:0.39 2:30 7:1 9:1 12:1197831 15:1 19:1 20:42 21:12 22:9 23:2021
625 0:6 1:0.4 2:25 4:1 9:1 12:1197831 15:1 19:1 21:7 22:8 23:2021
131 0:6 1:0.6 2:29 4:1 9:1 12:1197831 15:1 18:1 21:24 22:9 23:2021
625 0:6 1:0.45 2:30 4:1 9:1 12:1197831 15:1 19:1 21:13 22:8 23:2021
140 0:6 1:0.6400000000000001 2:37 6:1 9:1 12:1197831 15:1 19:1 21:15 22:9 23:2021
675 0:25 1:0.45 2:30 4:1 9:1 12:1197831 15:1 19:1 20:41 21:9 22:5 23:2021
625 0:6 1:0.6500000000000001 2:60 5:1 9:1 12:1197831 15:1 19:1 21:5 22:10 23:2021
68 0:6 1:0.48 2:38 9:1 12:1197831 15:1 18:1 21:11 22:8 23:2021
255 0:22 1:0.41 2:20 4:1 9:1 12:1197831 15:1 19:1 20:42 21:25 22:7 23:2020
322 0:6 1:0.5599999999999999 2:31 7:1 9:1 12:1197831 15:1 19:1 21:8 22:9 23:2021
350 0:6 1:0.6000000000000001 2:60 6:1 9:1 12:1197831 15:1 19:1 21:21 22:9 23:2021
210 0:6 1:0.6499999999999999 2:52 3:1 9:1 12:1197831 15:1 18:1 21:13 22:9 23:2021
109 0:25 1:0.4399999999999999 2:28 9:1 12:1197831 15:1 19:1 20:41 21:7 22:5 23:2021
113 0:25 1:0.53 2:51 9:1 12:1197831 15:1 18:1 20:41 21:13 22:5 23:2021
169 0:15 1:0.51 2:38 3:1 9:1 12:1197831 15:1 18:1 20:42 21:5 22:10 23:2021
500 0:6 1:0.4 2:50 9:1 12:1197831 15:1 19:1 21:4 22:9 23:2021
250 0:6 1:0.4 2:40 9:1 12:1197831 15:1 19:1 21:17 22:8 23:2021
750 0:25 1:0.4 2:25.00000000000001 3:1 9:1 12:1197831 15:1 19:1 20:41 21:4 22:4 23:2021
300 0:15 1:0.25 2:40 9:1 12:1197831 15:1 19:1 20:42 21:21 22:8 23:2021
675 0:15 1:0.55 2:70 5:1 9:1 12:1197831 15:1 19:1 20:42 21:15 22:10 23:2021
94 0:25 1:0.32 2:29 9:1 12:1197831 15:1 19:1 20:41 21:20 22:3 23:2021
202 0:6 1:0.47 2:16 3:1 9:1 12:1197831 15:1 19:1 21:20 22:8 23:2021
85 0:15 1:0.4 2:34 9:1 12:1197831 15:1 18:1 20:42 21:2 22:9 23:2021
111 0:15 1:0.6 2:41 6:1 9:1 12:1197831 15:1 18:1 20:42 21:7 22:10 23:2021
240 0:6 1:0.5599999999999999 2:46 4:1 9:1 12:1197831 15:1 19:1 21:6 22:10 23:2021
750 0:6 1:0.4999999999999999 2:40 4:1 9:1 12:1197831 15:1 19:1 21:12 22:9 23:2021
194 0:6 1:0.47 2:32 3:1 9:1 12:1197831 15:1 19:1 21:14 22:8 23:2021
700 0:6 1:0.4999999999999999 2:65 7:1 9:1 12:1197831 15:1 19:1 21:8 22:10 23:2021
625 0:25 1:0.6000000000000001 2:45 5:1 9:1 12:1197831 15:1 19:1 20:41 21:2 22:5 23:2021
256 0:15 1:0.46 2:43 3:1 9:1 12:1197831 15:1 19:1 20:42 21:23 22:9 23:2021
190 0:6 1:0.7200000000000002 2:26 5:1 9:1 12:1197831 15:1 19:1 21:23 22:9 23:2021
160 0:25 1:0.47 2:38 9:1 12:1197831 15:1 19:1 20:41 21:19 22:5 23:2021
900 0:22 1:0.35 2:30 4:1 9:1 12:1197831 15:1 19:1 20:42 21:6 22:8 23:2020
525 0:25 1:0.5 2:30 6:1 9:1 12:1197831 15:1 19:1 20:41 21:6 22:4 23:2021
322 0:15 1:0.42 2:33 7:1 9:1 12:1197831 15:1 19:1 20:42 21:18 22:9 23:2021
850 0:15 1:0.55 2:60 5:1 9:1 12:1197831 15:1 19:1 20:42 21:21 22:9 23:2021
140 0:24 1:0.44 2:11 7:1 9:1 12:1197831 15:1 19:1 20:23 21:23 22:1 23:2021
525 0:6 1:0.4999999999999999 2:30 3:1 9:1 12:1197831 15:1 19:1 21:25 22:9 23:2021
182 0:15 1:0.45 2:18 4:1 9:1 12:1197831 15:1 18:1 20:42 21:29 22:8 23:2021
144 0:24 1:0.61 2:71 5:1 9:1 12:1185732 15:1 18:1 20:23 21:16 22:12 23:2021
168 0:24 1:0.5700000000000001 2:51 5:1 9:1 12:1185732 15:1 19:1 20:23 21:17 22:11 23:2021
167 0:15 1:0.46 2:47 9:1 12:1197831 15:1 18:1 20:42 21:20 22:9 23:2021
123 0:24 1:0.38 2:26 9:1 12:1197831 15:1 19:1 20:23 21:23 22:1 23:2021
675 0:15 1:0.35 2:30 4:1 9:1 12:1197831 15:1 19:1 20:42 21:23 22:8 23:2021
163 0:24 1:0.54 2:28 4:1 9:1 12:1185732 15:1 18:1 20:23 21:17 22:11 23:2021
218 0:15 1:0.5 2:37 3:1 9:1 12:1197831 15:1 18:1 20:42 21:11 22:10 23:2021
135 0:6 1:0.6700000000000002 2:36 6:1 9:1 12:1197831 15:1 19:1 21:3 22:10 23:2021
145 0:25 1:0.6100000000000001 2:25 5:1 9:1 12:1197831 15:1 19:1 20:41 21:27 22:3 23:2021
500 0:15 1:0.5 2:65 6:1 9:1 12:1197831 15:1 19:1 20:42 21:13 22:10 23:2021
750 0:6 1:0.4999999999999999 2:55.00000000000001 3:1 9:1 12:1197831 15:1 19:1 21:13 22:9 23:2021
196 0:6 1:0.6700000000000002 2:36 6:1 9:1 12:1197831 15:1 19:1 21:9 22:9 23:2021
224 0:22 1:0.5600000000000001 2:25 5:1 9:1 12:1197831 15:1 19:1 20:42 21:24 22:7 23:2020
450 0:6 1:0.45 2:30 7:1 9:1 12:1197831 15:1 19:1 21:15 22:8 23:2021
575 0:15 1:0.5 2:45 6:1 9:1 12:1197831 15:1 19:1 20:42 21:19 22:9 23:2021
175 0:15 1:0.48 2:28 3:1 9:1 12:1197831 15:1 18:1 20:42 21:30 22:8 23:2021
254 0:15 1:0.45 2:47 7:1 9:1 12:1197831 15:1 19:1 20:42 21:30 22:9 23:2021
223 0:25 1:0.4899999999999999 2:21 3:1 9:1 12:1197831 15:1 19:1 20:41 21:10 22:5 23:2021
111 0:25 1:0.66 2:33 5:1 9:1 12:1197831 15:1 18:1 20:41 21:27 22:3 23:2021
450 0:15 1:0.5 2:35 5:1 9:1 12:1197831 15:1 19:1 20:42 21:28 22:8 23:2021
152 0:15 1:0.49 2:25 7:1 9:1 12:1197831 15:1 18:1 20:42 21:31 22:8 23:2021
475 0:6 1:0.4999999999999999 2:35 7:1 9:1 12:1197831 15:1 19:1 21:26 22:9 23:2021
675 0:15 1:0.3 2:25 4:1 9:1 12:1197831 15:1 19:1 20:42 21:17 22:8 23:2021
725 0:25 1:0.6000000000000001 2:54.99999999999999 5:1 9:1 12:1197831 15:1 19:1 20:41 21:26 22:4 23:2021
117 0:24 1:0.45 2:18 3:1 9:1 12:1185732 15:1 18:1 20:23 21:17 22:11 23:2021
250 0:6 1:0.35 2:40 9:1 12:1197831 15:1 19:1 21:11 22:8 23:2021
650 0:24 1:0.4 2:25.00000000000001 4:1 9:1 12:1197831 15:1 18:1 20:23 21:23 22:1 23:2021
210 0:15 1:0.5700000000000001 2:22 5:1 9:1 12:1197831 15:1 19:1 20:42 21:3 22:9 23:2021
152 0:6 1:0.47 2:11 7:1 9:1 12:1197831 15:1 19:1 21:21 22:8 23:2021
169 0:6 1:0.61 2:19 3:1 9:1 12:1197831 15:1 18:1 21:1 22:10 23:2021
280 0:6 1:0.6400000000000001 2:36 5:1 9:1 12:1197831 15:1 19:1 21:5 22:9 23:2021
725 0:15 1:0.4 2:40 4:1 9:1 12:1197831 15:1 19:1 20:42 21:10 22:10 23:2021
210 0:24 1:0.45 2:17 4:1 9:1 12:1197831 15:1 19:1 20:23 21:21 22:2 23:2021
128 0:25 1:0.49 2:28 6:1 9:1 12:1197831 15:1 19:1 20:41 21:19 22:3 23:2021
289 0:22 1:0.42 2:23 3:1 9:1 12:1197831 15:1 19:1 20:42 21:26 22:7 23:2020
181 0:15 1:0.5499999999999999 2:38 4:1 9:1 12:1197831 15:1 18:1 20:42 21:10 22:10 23:2021
650 0:25 1:0.6000000000000001 2:65 5:1 9:1 12:1197831 15:1 19:1 20:41 21:14 22:5 23:2021
192 0:15 1:0.49 2:29 6:1 9:1 12:1197831 15:1 19:1 20:42 21:13 22:9 23:2021
475 0:6 1:0.6500000000000001 2:40 5:1 9:1 12:1197831 15:1 19:1 21:29 22:9 23:2021
176 0:25 1:0.51 2:24 3:1 9:1 12:1197831 15:1 18:1 20:41 21:29 22:3 23:2021
95 0:25 1:0.4 2:39 9:1 12:1197831 15:1 18:1 20:41 21:14 22:3 23:2021
350 0:24 1:0.35 2:35 9:1 12:1197831 15:1 18:1 20:23 21:23 22:1 23:2021
650 0:15 1:0.3 2:35 3:1 9:1 12:1197831 15:1 19:1 20:42 21:18 22:8 23:2021
180 0:25 1:0.54 2:19 7:1 9:1 12:1197831 15:1 18:1 20:41 21:5 22:4 23:2021
158 0:24 1:0.61 2:68 5:1 9:1 12:1185732 15:1 18:1 20:23 21:17 22:11 23:2021
131 0:25 1:0.6000000000000001 2:30 6:1 9:1 12:1197831 15:1 19:1 20:41 21:6 22:5 23:2021
725 0:6 1:0.45 2:20.00000000000001 3:1 9:1 12:1197831 15:1 19:1 21:26 22:8 23:2021
575 0:15 1:0.35 2:50 9:1 12:1197831 15:1 19:1 20:42 21:20 22:9 23:2021
450 0:24 1:0.4 2:15.00000000000001 7:1 9:1 12:1197831 15:1 18:1 20:23 21:23 22:1 23:2021
182 0:25 1:0.6 2:49 4:1 9:1 12:1197831 15:1 18:1 20:41 21:27 22:4 23:2021
163 0:22 1:0.5900000000000001 2:36 6:1 9:1 12:1197831 15:1 18:1 20:42 21:9 22:8 23:2020
675 0:15 1:0.4 2:55.00000000000001 3:1 9:1 12:1197831 15:1 19:1 20:42 21:29 22:9 23:2021
150 0:15 1:0.61 2:43 6:1 9:1 12:1197831 15:1 18:1 20:42 21:19 22:9 23:2021
750 0:25 1:0.6000000000000001 2:65 5:1 9:1 12:1197831 15:1 19:1 20:41 21:20 22:5 23:2021
775 0:25 1:0.55 2:40 5:1 9:1 12:1197831 15:1 19:1 20:41 21:8 22:4 23:2021
350 0:6 1:0.55 2:35 6:1 9:1 12:1197831 15:1 19:1 21:16 22:8 23:2021
525 0:15 1:0.35 2:25 7:1 9:1 12:1197831 15:1 19:1 20:42 21:31 22:8 23:2021
625 0:6 1:0.45 2:40 3:1 9:1 12:1197831 15:1 19:1 21:14 22:8 23:2021
189 0:6 1:0.59 2:19 3:1 9:1 12:1197831 15:1 18:1 21:26 22:8 23:2021
149 0:15 1:0.4 2:37 9:1 12:1197831 15:1 19:1 20:42 21:2 22:10 23:2021
73 0:6 1:0.5 2:37 9:1 12:1197831 15:1 18:1 21:17 22:8 23:2021
196 0:25 1:0.6100000000000001 2:18 5:1 9:1 12:1197831 15:1 19:1 20:41 21:2 22:4 23:2021
825 0:15 1:0.4 2:60 3:1 9:1 12:1197831 15:1 19:1 20:42 21:17 22:10 23:2021
122 0:24 1:0.52 2:23 5:1 9:1 12:1197831 15:1 18:1 20:23 21:23 22:1 23:2021
173 0:6 1:0.7400000000000001 2:44 6:1 9:1 12:1197831 15:1 18:1 21:9 22:9 23:2021
248 0:15 1:0.42 2:39 3:1 9:1 12:1197831 15:1 19:1 20:42 21:17 22:10 23:2021
143 0:24 1:0.47 2:41 6:1 9:1 12:1185732 15:1 19:1 20:23 21:16 22:12 23:2021
116 0:6 1:0.48 2:35 9:1 12:1197831 15:1 19:1 21:22 22:9 23:2021
145 0:6 1:0.5499999999999999 2:49 9:1 12:1197831 15:1 18:1 21:4 22:9 23:2021
271 0:25 1:0.51 2:44 3:1 9:1 12:1197831 15:1 19:1 20:41 21:22 22:4 23:2021
149 0:6 1:0.7500000000000001 2:20 5:1 9:1 12:1197831 15:1 18:1 21:24 22:8 23:2021
450 0:24 1:0.35 2:25.00000000000001 3:1 9:1 12:1197831 15:1 18:1 20:23 21:23 22:1 23:2021
145 0:15 1:0.62 2:59 6:1 9:1 12:1197831 15:1 18:1 20:42 21:13 22:10 23:2021
233 0:6 1:0.5399999999999999 2:39 3:1 9:1 12:1197831 15:1 19:1 21:13 22:9 23:2021
166 0:25 1:0.4299999999999999 2:22 7:1 9:1 12:1197831 15:1 19:1 20:41 21:24 22:3 23:2021
181 0:25 1:0.7100000000000001 2:53 5:1 9:1 12:1197831 15:1 18:1 20:41 21:26 22:4 23:2021
135 0:25 1:0.5499999999999999 2:19 7:1 9:1 12:1197831 15:1 18:1 20:41 21:30 22:3 23:2021
450 0:6 1:0.6000000000000001 2:45.00000000000001 6:1 9:1 12:1197831 15:1 19:1 21:3 22:10 23:2021
278 0:6 1:0.5299999999999999 2:36 7:1 9:1 12:1197831 15:1 19:1 21:14 22:9 23:2021
224 0:15 1:0.45 2:41 4:1 9:1 12:1197831 15:1 18:1 20:42 21:10 22:9 23:2021
147 0:15 1:0.55 2:33 5:1 9:1 12:1197831 15:1 18:1 20:42 21:16 22:8 23:2021
156 0:15 1:0.5 2:39 4:1 9:1 12:1197831 15:1 18:1 20:42 21:4 22:10 23:2021
98 0:25 1:0.7000000000000001 2:38 6:1 9:1 12:1197831 15:1 18:1 20:41 21:6 22:5 23:2021
375 0:6 1:0.55 2:20.00000000000001 6:1 9:1 12:1197831 15:1 19:1 21:22 22:8 23:2021
119 0:15 1:0.43 2:34 7:1 9:1 12:1197831 15:1 18:1 20:42 21:19 22:8 23:2021
600 0:6 1:0.4 2:35 3:1 9:1 12:1197831 15:1 19:1 21:8 22:8 23:2021
198 0:25 1:0.5600000000000001 2:29 6:1 9:1 12:1197831 15:1 19:1 20:41 21:12 22:4 23:2021
163 0:25 1:0.7400000000000001 2:42 5:1 9:1 12:1197831 15:1 18:1 20:41 21:2 22:5 23:2021
236 0:22 1:0.45 2:39 3:1 9:1 12:1197831 15:1 18:1 20:42 21:1 22:8 23:2020
236 0:15 1:0.6100000000000001 2:51 5:1 9:1 12:1197831 15:1 19:1 20:42 21:15 22:10 23:2021
575 0:6 1:0.6500000000000001 2:40 5:1 9:1 12:1197831 15:1 19:1 21:23 22:9 23:2021
475 0:15 1:0.35 2:60 9:1 12:1197831 15:1 19:1 20:42 21:14 22:10 23:2021
135 0:24 1:0.4 2:18 3:1 9:1 12:1197831 15:1 19:1 20:23 21:23 22:1 23:2021
192 0:6 1:0.42 2:26 3:1 9:1 12:1197831 15:1 19:1 21:8 22:8 23:2021
200 0:6 1:0.5199999999999999 2:14 3:1 9:1 12:1197831 15:1 19:1 21:1 22:10 23:2021
575 0:25 1:0.55 2:25.00000000000001 5:1 9:1 12:1197831 15:1 19:1 20:41 21:2 22:4 23:2021
285 0:25 1:0.6 2:46 7:1 9:1 12:1197831 15:1 18:1 20:41 21:23 22:4 23:2021
650 0:6 1:0.45 2:20.00000000000001 3:1 9:1 12:1197831 15:1 19:1 21:20 22:8 23:2021
925 0:6 1:0.4999999999999999 2:55.00000000000001 7:1 9:1 12:1197831 15:1 19:1 21:14 22:9 23:2021
232 0:15 1:0.46 2:38 4:1 9:1 12:1197831 15:1 19:1 20:42 21:28 22:9 23:2021
98 0:6 1:0.62 2:32 6:1 9:1 12:1197831 15:1 18:1 21:10 22:8 23:2021
223 0:25 1:0.7000000000000001 2:52 5:1 9:1 12:1197831 15:1 18:1 20:41 21:20 22:4 23:2021
203 0:25 1:0.51 2:40 7:1 9:1 12:1197831 15:1 19:1 20:41 21:29 22:4 23:2021
450 0:25 1:0.35 2:35 7:1 9:1 12:1197831 15:1 19:1 20:41 21:18 22:3 23:2021
600 0:15 1:0.5 2:30 5:1 9:1 12:1197831 15:1 19:1 20:42 21:3 22:9 23:2021
600 0:22 1:0.45 2:40 6:1 9:1 12:1197831 15:1 19:1 20:42 21:3 22:8 23:2020
375 0:15 1:0.25 2:40 9:1 12:1197831 15:1 19:1 20:42 21:15 22:8 23:2021
400 0:15 1:0.35 2:40 9:1 12:1197831 15:1 19:1 20:42 21:8 22:10 23:2021
182 0:25 1:0.59 2:54 7:1 9:1 12:1197831 15:1 18:1 20:41 21:29 22:4 23:2021
800 0:15 1:0.5 2:45 5:1 9:1 12:1197831 15:1 19:1 20:42 21:9 22:9 23:2021
725 0:15 1:0.4 2:40 3:1 9:1 12:1197831 15:1 19:1 20:42 21:11 22:10 23:2021
155 0:15 1:0.51 2:26 5:1 9:1 12:1197831 15:1 19:1 20:42 21:22 22:8 23:2021
700 0:24 1:0.4 2:25.00000000000001 4:1 9:1 12:1197831 15:1 18:1 20:23 21:21 22:2 23:2021
224 0:22 1:0.42 2:23 7:1 9:1 12:1197831 15:1 19:1 20:42 21:2 22:8 23:2020
155 0:24 1:0.49 2:58 3:1 9:1 12:1185732 15:1 18:1 20:23 21:16 22:12 23:2021
525 0:25 1:0.45 2:40 7:1 9:1 12:1197831 15:1 19:1 20:41 21:5 22:5 23:2021
525 0:24 1:0.5 2:75 5:1 9:1 12:1185732 15:1 18:1 20:23 21:17 22:11 23:2021
425 0:24 1:0.35 2:75.00000000000001 9:1 12:1185732 15:1 18:1 20:23 21:17 22:11 23:2021
232 0:22 1:0.37 2:24 7:1 9:1 12:1197831 15:1 19:1 20:42 21:8 22:8 23:2020
203 0:25 1:0.45 2:13 4:1 9:1 12:1197831 15:1 19:1 20:41 21:28 22:3 23:2021
163 0:6 1:0.5499999999999999 2:28 4:1 9:1 12:1197831 15:1 18:1 21:13 22:8 23:2021
650 0:6 1:0.45 2:45 7:1 9:1 12:1197831 15:1 19:1 21:2 22:9 23:2021
218 0:6 1:0.4899999999999999 2:16 3:1 9:1 12:1197831 15:1 19:1 21:26 22:8 23:2021
263 0:22 1:0.39 2:30 3:1 9:1 12:1197831 15:1 19:1 20:42 21:1 22:8 23:2020
264 0:25 1:0.4999999999999999 2:30 3:1 9:1 12:1197831 15:1 19:1 20:41 21:16 22:4 23:2021
239 0:15 1:0.4399999999999999 2:46 7:1 9:1 12:1197831 15:1 19:1 20:42 21:18 22:10 23:2021
875 0:15 1:0.5 2:55.00000000000001 5:1 9:1 12:1197831 15:1 19:1 20:42 21:15 22:9 23:2021
210 0:25 1:0.51 2:44 7:1 9:1 12:1197831 15:1 19:1 20:41 21:17 22:5 23:2021
147 0:6 1:0.7200000000000002 2:26 5:1 9:1 12:1197831 15:1 19:1 21:29 22:9 23:2021
173 0:25 1:0.57 2:33 4:1 9:1 12:1197831 15:1 18:1 20:41 21:3 22:5 23:2021
203 0:25 1:0.48 2:24 4:1 9:1 12:1197831 15:1 19:1 20:41 21:9 22:5 23:2021
201 0:15 1:0.55 2:32 6:1 9:1 12:1197831 15:1 19:1 20:42 21:19 22:9 23:2021
500 0:25 1:0.5 2:35 5:1 9:1 12:1197831 15:1 19:1 20:41 21:15 22:3 23:2021
875 0:22 1:0.35 2:30 4:1 9:1 12:1197831 15:1 19:1 20:42 21:31 22:7 23:2020
78 0:24 1:0.53 2:19 6:1 9:1 12:1197831 15:1 18:1 20:23 21:23 22:1 23:2021
162 0:15 1:0.39 2:46 9:1 12:1197831 15:1 19:1 20:42 21:14 22:10 23:2021
93 0:15 1:0.32 2:26 9:1 12:1197831 15:1 19:1 20:42 21:21 22:8 23:2021
201 0:25 1:0.52 2:28 4:1 9:1 12:1197831 15:1 19:1 20:41 21:3 22:5 23:2021
165 0:6 1:0.6700000000000002 2:14 5:1 9:1 12:1197831 15:1 19:1 21:24 22:8 23:2021
175 0:15 1:0.47 2:24 7:1 9:1 12:1197831 15:1 18:1 20:42 21:6 22:9 23:2021
400 0:15 1:0.45 2:35 6:1 9:1 12:1197831 15:1 19:1 20:42 21:26 22:8 23:2021
176 0:15 1:0.51 2:54 3:1 9:1 12:1197831 15:1 18:1 20:42 21:29 22:9 23:2021
213 0:22 1:0.5 2:23 4:1 9:1 12:1197831 15:1 18:1 20:42 21:25 22:7 23:2020
450 0:15 1:0.35 2:55.00000000000001 9:1 12:1197831 15:1 19:1 20:42 21:2 22:10 23:2021
169 0:25 1:0.6 2:47 3:1 9:1 12:1197831 15:1 18:1 20:41 21:28 22:4 23:2021
375 0:25 1:0.5 2:35 6:1 9:1 12:1197831 15:1 19:1 20:41 21:25 22:3 23:2021
625 0:25 1:0.45 2:50 3:1 9:1 12:1197831 15:1 19:1 20:41 21:28 22:4 23:2021
400 0:25 1:0.4 2:50 9:1 12:1197831 15:1 19:1 20:41 21:1 22:5 23:2021
219 0:15 1:0.47 2:29 3:1 9:1 12:1197831 15:1 19:1 20:42 21:5 22:10 23:2021
84 0:25 1:0.45 2:28 9:1 12:1197831 15:1 18:1 20:41 21:1 22:4 23:2021
254 0:22 1:0.45 2:29 4:1 9:1 12:1197831 15:1 18:1 20:42 21:31 22:7 23:2020
825 0:15 1:0.4 2:60 4:1 9:1 12:1197831 15:1 19:1 20:42 21:16 22:10 23:2021
208 0:15 1:0.51 2:49 4:1 9:1 12:1197831 15:1 18:1 20:42 21:22 22:9 23:2021
213 0:22 1:0.48 2:28 6:1 9:1 12:1197831 15:1 19:1 20:42 21:9 22:8 23:2020
475 0:24 1:0.5 2:35 5:1 9:1 12:1185732 15:1 18:1 20:23 21:18 22:10 23:2021
400 0:6 1:0.4 2:50 9:1 12:1197831 15:1 19:1 21:29 22:8 23:2021
188 0:6 1:0.6900000000000002 2:45 5:1 9:1 12:1197831 15:1 19:1 21:5 22:10 23:2021
395 0:24 1:0.4 2:30.00000000000001 7:1 9:1 12:1185732 15:1 18:1 20:23 21:17 22:11 23:2021
182 0:15 1:0.5 2:29 4:1 9:1 12:1197831 15:1 18:1 20:42 21:23 22:8 23:2021
176 0:15 1:0.43 2:23 4:1 9:1 12:1197831 15:1 18:1 20:42 21:17 22:8 23:2021
233 0:25 1:0.57 2:54 3:1 9:1 12:1197831 15:1 18:1 20:41 21:22 22:4 23:2021
174 0:6 1:0.54 2:33 3:1 9:1 12:1197831 15:1 18:1 21:8 22:8 23:2021
475 0:15 1:0.3 2:35 7:1 9:1 12:1197831 15:1 19:1 20:42 21:19 22:8 23:2021
500 0:6 1:0.45 2:60 9:1 12:1197831 15:1 19:1 21:10 22:10 23:2021
650 0:15 1:0.35 2:45 7:1 9:1 12:1197831 15:1 19:1 20:42 21:12 22:9 23:2021
125 0:22 1:0.45 2:38 9:1 12:1197831 15:1 18:1 20:42 21:29 22:7 23:2020
122 0:25 1:0.48 2:32 7:1 9:1 12:1197831 15:1 18:1 20:41 21:18 22:3 23:2021
178 0:24 1:0.55 2:53 5:1 9:1 12:1185732 15:1 19:1 20:23 21:16 22:12 23:2021
332 0:15 1:0.47 2:35 7:1 9:1 12:1197831 15:1 19:1 20:42 21:24 22:9 23:2021
575 0:25 1:0.55 2:40 6:1 9:1 12:1197831 15:1 19:1 20:41 21:18 22:4 23:2021
120 0:25 1:0.51 2:47 9:1 12:1197831 15:1 18:1 20:41 21:1 22:5 23:2021
225 0:6 1:0.48 2:30 4:1 9:1 12:1197831 15:1 19:1 21:31 22:8 23:2021
120 0:24 1:0.5 2:14 7:1 9:1 12:1197831 15:1 18:1 20:23 21:21 22:2 23:2021
234 0:22 1:0.48 2:27 4:1 9:1 12:1197831 15:1 18:1 20:42 21:6 22:8 23:2020
75 0:15 1:0.35 2:38 9:1 12:1197831 15:1 18:1 20:42 21:21 22:8 23:2021
236 0:25 1:0.65 2:49 5:1 9:1 12:1197831 15:1 18:1 20:41 21:14 22:4 23:2021
425 0:15 1:0.5 2:45 6:1 9:1 12:1197831 15:1 19:1 20:42 21:7 22:10 23:2021
575 0:6 1:0.6000000000000001 2:45 6:1 9:1 12:1197831 15:1 19:1 21:9 22:9 23:2021
225 0:6 1:0.7200000000000002 2:56 5:1 9:1 12:1197831 15:1 19:1 21:11 22:10 23:2021
150 0:15 1:0.37 2:40 9:1 12:1197831 15:1 19:1 20:42 21:14 22:9 23:2021
117 0:24 1:0.53 2:54 6:1 9:1 12:1185732 15:1 18:1 20:23 21:17 22:11 23:2021
575 0:6 1:0.45 2:15 7:1 9:1 12:1197831 15:1 19:1 21:27 22:8 23:2021
176 0:15 1:0.65 2:67 5:1 9:1 12:1197831 15:1 18:1 20:42 21:15 22:10 23:2021
94 0:15 1:0.35 2:37 9:1 12:1197831 15:1 18:1 20:42 21:15 22:8 23:2021
375 0:25 1:0.55 2:40 6:1 9:1 12:1197831 15:1 19:1 20:41 21:6 22:5 23:2021
155 0:22 1:0.32 2:35 9:1 12:1197831 15:1 19:1 20:42 21:4 22:8 23:2020
157 0:25 1:0.6200000000000001 2:38 6:1 9:1 12:1197831 15:1 19:1 20:41 21:12 22:5 23:2021
625 0:6 1:0.4999999999999999 2:20 4:1 9:1 12:1197831 15:1 19:1 21:30 22:9 23:2021
138 0:6 1:0.7000000000000001 2:32 5:1 9:1 12:1197831 15:1 18:1 21:6 22:8 23:2021
950 0:25 1:0.45 2:50 7:1 9:1 12:1197831 15:1 19:1 20:41 21:23 22:4 23:2021
800 0:15 1:0.4 2:50 4:1 9:1 12:1197831 15:1 19:1 20:42 21:22 22:9 23:2021
225 0:22 1:0.45 2:38 3:1 9:1 12:1197831 15:1 18:1 20:42 21:7 22:8 23:2020
500 0:25 1:0.4 2:20 7:1 9:1 12:1197831 15:1 19:1 20:41 21:30 22:3 23:2021
131 0:25 1:0.7100000000000001 2:43 5:1 9:1 12:1197831 15:1 18:1 20:41 21:8 22:5 23:2021
450 0:24 1:0.35 2:20.00000000000001 3:1 9:1 12:1185732 15:1 18:1 20:23 21:17 22:11 23:2021
675 0:25 1:0.45 2:54.99999999999999 7:1 9:1 12:1197831 15:1 19:1 20:41 21:29 22:4 23:2021
182 0:6 1:0.7700000000000001 2:59 5:1 9:1 12:1197831 15:1 18:1 21:17 22:9 23:2021
165 0:6 1:0.47 2:38 9:1 12:1197831 15:1 19:1 21:4 22:9 23:2021
143 0:25 1:0.5600000000000001 2:28 5:1 9:1 12:1197831 15:1 19:1 20:41 21:21 22:3 23:2021
128 0:15 1:0.53 2:32 6:1 9:1 12:1197831 15:1 18:1 20:42 21:20 22:8 23:2021
550 0:15 1:0.45 2:35 6:1 9:1 12:1197831 15:1 19:1 20:42 21:7 22:9 23:2021
525 0:15 1:0.45 2:35 5:1 9:1 12:1197831 15:1 19:1 20:42 21:16 22:8 23:2021
165 0:6 1:0.6100000000000001 2:26 6:1 9:1 12:1197831 15:1 19:1 21:28 22:8 23:2021
105 0:25 1:0.38 2:20 9:1 12:1197831 15:1 19:1 20:41 21:1 22:4 23:2021
203 0:15 1:0.47 2:38 3:1 9:1 12:1197831 15:1 19:1 20:42 21:29 22:9 23:2021
219 0:25 1:0.6200000000000001 2:30 5:1 9:1 12:1197831 15:1 19:1 20:41 21:2 22:5 23:2021
850 0:22 1:0.35 2:35 3:1 9:1 12:1197831 15:1 19:1 20:42 21:26 22:7 23:2020
108 0:25 1:0.6 2:33 6:1 9:1 12:1197831 15:1 18:1 20:41 21:19 22:3 23:2021
203 0:22 1:0.46 2:34 7:1 9:1 12:1197831 15:1 18:1 20:42 21:8 22:8 23:2020
149 0:15 1:0.49 2:20 6:1 9:1 12:1197831 15:1 19:1 20:42 21:1 22:9 23:2021
189 0:6 1:0.58 2:19 3:1 9:1 12:1197831 15:1 18:1 21:20 22:8 23:2021
650 0:22 1:0.5 2:40 5:1 9:1 12:1197831 15:1 19:1 20:42 21:5 22:8 23:2020
178 0:25 1:0.48 2:25 3:1 9:1 12:1197831 15:1 19:1 20:41 21:4 22:5 23:2021
550 0:25 1:0.4 2:45 9:1 12:1197831 15:1 19:1 20:41 21:19 22:4 23:2021
725 0:15 1:0.4 2:60 7:1 9:1 12:1197831 15:1 19:1 20:42 21:30 22:9 23:2021
179 0:25 1:0.6700000000000002 2:29 5:1 9:1 12:1197831 15:1 19:1 20:41 21:8 22:5 23:2021
550 0:22 1:0.3 2:40 9:1 12:1197831 15:1 19:1 20:42 21:23 22:7 23:2020
162 0:24 1:0.54 2:27 5:1 9:1 12:1185732 15:1 19:1 20:23 21:18 22:10 23:2021
550 0:25 1:0.55 2:60 6:1 9:1 12:1197831 15:1 19:1 20:41 21:18 22:5 23:2021
125 0:22 1:0.4 2:41 9:1 12:1197831 15:1 18:1 20:42 21:4 22:8 23:2020
131 0:15 1:0.45 2:49 9:1 12:1197831 15:1 18:1 20:42 21:8 22:9 23:2021
189 0:25 1:0.51 2:27 4:1 9:1 12:1197831 15:1 18:1 20:41 21:22 22:3 23:2021
106 0:25 1:0.49 2:41 9:1 12:1197831 15:1 18:1 20:41 21:7 22:4 23:2021
176 0:25 1:0.6000000000000001 2:44 6:1 9:1 12:1197831 15:1 19:1 20:41 21:18 22:5 23:2021
203 0:6 1:0.7200000000000001 2:43 5:1 9:1 12:1197831 15:1 18:1 21:30 22:8 23:2021
675 0:15 1:0.35 2:40 3:1 9:1 12:1197831 15:1 19:1 20:42 21:24 22:8 23:2021
153 0:24 1:0.44 2:43 6:1 9:1 12:1185732 15:1 19:1 20:23 21:17 22:11 23:2021
475 0:6 1:0.45 2:15 7:1 9:1 12:1197831 15:1 19:1 21:21 22:8 23:2021
165 0:25 1:0.53 2:43 9:1 12:1197831 15:1 18:1 20:41 21:19 22:4 23:2021
143 0:25 1:0.45 2:35 9:1 12:1197831 15:1 19:1 20:41 21:25 22:4 23:2021
236 0:22 1:0.41 2:27 7:1 9:1 12:1197831 15:1 19:1 20:42 21:27 22:7 23:2020
189 0:25 1:0.5599999999999999 2:29 3:1 9:1 12:1197831 15:1 18:1 20:41 21:10 22:5 23:2021
143 0:15 1:0.35 2:27 7:1 9:1 12:1197831 15:1 19:1 20:42 21:19 22:8 23:2021
475 0:25 1:0.55 2:55.00000000000001 6:1 9:1 12:1197831 15:1 19:1 20:41 21:12 22:5 23:2021
136 0:25 1:0.5700000000000001 2:40 6:1 9:1 12:1197831 15:1 19:1 20:41 21:30 22:4 23:2021
182 0:25 1:0.45 2:33 9:1 12:1197831 15:1 19:1 20:41 21:19 22:4 23:2021
204 0:25 1:0.46 2:14 7:1 9:1 12:1197831 15:1 19:1 20:41 21:5 22:4 23:2021
138 0:15 1:0.48 2:56 9:1 12:1197831 15:1 18:1 20:42 21:14 22:10 23:2021
156 0:6 1:0.54 2:24 4:1 9:1 12:1197831 15:1 18:1 21:7 22:8 23:2021
