450 0:45 1:0.5 2:25 5:1 11:1 12:1185732 17:1 20:43 21:11 22:2 23:2021
128 0:45 1:0.47 2:16 6:1 11:1 12:1185732 17:1 19:1 20:43 21:10 22:7 23:2021
575 0:16 1:0.45 2:70 7:1 11:1 12:1128299 17:1 20:5 21:22 22:4 23:2020
105 0:42 1:0.43 2:58 5:1 11:1 12:1128299 17:1 18:1 20:36 21:24 22:10 23:2021
225 0:42 1:0.4 2:60.00000000000001 11:1 12:1128299 17:1 20:36 21:25 22:9 23:2021
400 0:7 1:0.5 2:35 5:1 11:1 12:1197831 17:1 18:1 20:11 21:6 22:3 23:2021
550 0:45 1:0.4 2:30 4:1 11:1 12:1185732 17:1 20:43 21:11 22:11 23:2021
196 0:26 1:0.47 2:58 4:1 11:1 12:1128299 17:1 18:1 20:27 21:9 22:3 23:2020
181 0:46 1:0.25 2:76 5:1 11:1 12:1128299 17:1 18:1 20:4 21:23 22:1 23:2021
140 0:26 1:0.43 2:31 7:1 11:1 12:1128299 17:1 19:1 20:27 21:10 22:1 23:2020
108 0:45 1:0.45 2:34 11:1 12:1185732 17:1 18:1 20:43 21:11 22:6 23:2021
650 0:45 1:0.4 2:30 4:1 11:1 12:1185732 17:1 20:43 21:12 22:9 23:2021
123 0:16 1:0.5 2:38 7:1 11:1 12:1128299 17:1 18:1 20:5 21:23 22:3 23:2020
300 0:47 1:0.3 2:50 6:1 11:1 12:1128299 17:1 20:46 21:4 22:6 23:2020
136 0:26 1:0.5400000000000001 2:49 11:1 12:1128299 17:1 19:1 20:27 21:13 22:3 23:2020
128 0:16 1:0.26 2:37 5:1 11:1 12:1128299 17:1 18:1 20:5 21:20 22:3 23:2020
725 0:46 1:0.3 2:55.00000000000001 7:1 11:1 12:1128299 17:1 19:1 20:4 21:7 22:2 23:2021
193 0:42 1:0.41 2:48 7:1 11:1 12:1128299 17:1 19:1 20:36 21:23 22:12 23:2021
750 0:42 1:0.35 2:65.00000000000001 4:1 11:1 12:1128299 17:1 20:36 21:23 22:12 23:2021
128 0:26 1:0.26 2:55 5:1 11:1 12:1128299 17:1 19:1 20:27 21:18 22:2 23:2020
600 0:42 1:0.3 2:105 5:1 11:1 12:1128299 17:1 20:36 21:23 22:7 23:2021
137 0:47 1:0.41 2:78 6:1 11:1 12:1128299 17:1 18:1 20:46 21:4 22:7 23:2020
94 0:45 1:0.45 2:25 3:1 11:1 12:1185732 17:1 18:1 20:43 21:11 22:4 23:2021
152 0:45 1:0.6 2:32 5:1 11:1 12:1185732 17:1 18:1 20:43 21:11 22:8 23:2021
153 0:45 1:0.37 2:20 7:1 11:1 12:1185732 17:1 19:1 20:43 21:10 22:12 23:2021
650 0:7 1:0.35 2:30 3:1 11:1 12:1197831 17:1 18:1 20:11 21:5 22:4 23:2021
750 0:7 1:0.5 2:45 5:1 11:1 12:1197831 17:1 18:1 20:11 21:5 22:5 23:2021
775 0:46 1:0.5 2:65 11:1 12:1128299 17:1 19:1 20:4 21:16 22:1 23:2021
120 0:26 1:0.22 2:53 5:1 11:1 12:1128299 17:1 19:1 20:27 21:2 22:3 23:2020
725 0:46 1:0.3 2:60 6:1 11:1 12:1128299 17:1 19:1 20:4 21:15 22:1 23:2021
149 0:42 1:0.42 2:76 5:1 11:1 12:1128299 17:1 18:1 20:36 21:24 22:11 23:2021
228 0:45 1:0.43 2:20 4:1 11:1 12:1185732 17:1 19:1 20:43 21:10 22:3 23:2021
176 0:26 1:0.48 2:46 7:1 11:1 12:1128299 17:1 19:1 20:27 21:3 22:2 23:2020
73 0:47 1:0.39 2:51 11:1 12:1128299 17:1 18:1 20:46 21:30 22:5 23:2020
800 0:42 1:0.35 2:90 4:1 11:1 12:1128299 17:1 20:36 21:24 22:8 23:2021
149 0:45 1:0.5 2:29 4:1 11:1 12:1185732 17:1 18:1 20:43 21:11 22:11 23:2021
137 0:16 1:0.33 2:75 5:1 11:1 12:1128299 17:1 18:1 20:5 21:25 22:5 23:2020
105 0:26 1:0.46 2:47 6:1 11:1 12:1128299 17:1 19:1 20:27 21:29 22:1 23:2020
195 0:42 1:0.49 2:68 7:1 11:1 12:1128299 17:1 18:1 20:36 21:24 22:8 23:2021
425 0:26 1:0.4 2:45 7:1 11:1 12:1128299 17:1 19:1 20:27 21:10 22:1 23:2020
975 0:46 1:0.4 2:60 4:1 11:1 12:1128299 17:1 19:1 20:4 21:6 22:1 23:2021
575 0:16 1:0.35 2:65 3:1 11:1 12:1128299 17:1 20:5 21:15 22:4 23:2020
100 0:42 1:0.4 2:55.00000000000001 11:1 12:1128299 17:1 20:36 21:23 22:3 23:2021
81 0:42 1:0.48 2:44 6:1 11:1 12:1128299 17:1 18:1 20:36 21:24 22:10 23:2021
193 0:26 1:0.25 2:50 3:1 11:1 12:1128299 17:1 19:1 20:27 21:26 22:2 23:2020
273 0:46 1:0.46 2:62 4:1 11:1 12:1128299 17:1 18:1 20:4 21:18 22:1 23:2021
225 0:46 1:0.44 2:46 7:1 11:1 12:1128299 17:1 19:1 20:4 21:2 22:1 23:2021
173 0:46 1:0.54 2:38 11:1 12:1128299 17:1 19:1 20:4 21:5 22:11 23:2020
575 0:45 1:0.4 2:30 4:1 11:1 12:1185732 17:1 20:43 21:11 22:10 23:2021
128 0:26 1:0.47 2:43 7:1 11:1 12:1128299 17:1 19:1 20:27 21:16 22:1 23:2020
119 0:26 1:0.53 2:41 7:1 11:1 12:1128299 17:1 18:1 20:27 21:10 22:1 23:2020
81 0:26 1:0.7400000000000001 2:59 11:1 12:1128299 17:1 18:1 20:27 21:5 22:2 23:2020
250 0:42 1:0.3 2:44.99999999999999 5:1 11:1 12:1128299 17:1 20:36 21:25 22:9 23:2021
400 0:45 1:0.5 2:34.99999999999999 5:1 11:1 12:1185732 17:1 20:43 21:11 22:10 23:2021
116 0:16 1:0.49 2:51 7:1 11:1 12:1128299 17:1 18:1 20:5 21:29 22:3 23:2020
108 0:47 1:0.33 2:76 5:1 11:1 12:1128299 17:1 18:1 20:46 21:12 22:7 23:2020
58 0:42 1:0.48 2:39 6:1 11:1 12:1128299 17:1 18:1 20:36 21:24 22:2 23:2021
128 0:26 1:0.42 2:26 7:1 11:1 12:1128299 17:1 19:1 20:27 21:17 22:3 23:2020
450 0:26 1:0.15 2:75.00000000000001 5:1 11:1 12:1128299 17:1 20:27 21:24 22:2 23:2020
250 0:47 1:0.25 2:55.00000000000001 11:1 12:1128299 17:1 20:46 21:30 22:5 23:2020
550 0:7 1:0.5 2:30 5:1 11:1 12:1197831 17:1 18:1 20:11 21:5 22:4 23:2021
550 0:16 1:0.35 2:40 4:1 11:1 12:1128299 17:1 20:5 21:27 22:3 23:2020
224 0:46 1:0.12 2:46 5:1 11:1 12:1128299 17:1 19:1 20:4 21:4 22:2 23:2021
90 0:47 1:0.44 2:59 6:1 11:1 12:1128299 17:1 18:1 20:46 21:22 22:6 23:2020
188 0:46 1:0.34 2:48 6:1 11:1 12:1128299 17:1 19:1 20:4 21:28 22:12 23:2020
90 0:42 1:0.34 2:49 5:1 11:1 12:1128299 17:1 19:1 20:36 21:24 22:4 23:2021
59 0:42 1:0.53 2:58 11:1 12:1128299 17:1 18:1 20:36 21:25 22:9 23:2021
149 0:42 1:0.37 2:34 4:1 11:1 12:1128299 17:1 19:1 20:36 21:25 22:9 23:2021
119 0:26 1:0.5400000000000001 2:46 11:1 12:1128299 17:1 19:1 20:27 21:7 22:3 23:2020
400 0:16 1:0.15 2:40 5:1 11:1 12:1128299 17:1 20:5 21:26 22:3 23:2020
400 0:45 1:0.35 2:40 11:1 12:1185732 17:1 20:43 21:10 22:12 23:2021
158 0:45 1:0.38 2:19 3:1 11:1 12:1185732 17:1 19:1 20:43 21:12 22:9 23:2021
475 0:26 1:0.3 2:60.00000000000001 6:1 11:1 12:1128299 17:1 20:27 21:12 22:3 23:2020
175 0:16 1:0.6500000000000001 2:65 11:1 12:1128299 17:1 20:5 21:12 22:4 23:2020
175 0:16 1:0.5 2:65 11:1 12:1128299 17:1 20:5 21:6 22:4 23:2020
375 0:26 1:0.35 2:60.00000000000001 7:1 11:1 12:1128299 17:1 20:27 21:27 22:2 23:2020
140 0:26 1:0.32 2:54 5:1 11:1 12:1128299 17:1 19:1 20:27 21:31 22:1 23:2020
113 0:47 1:0.35 2:62 5:1 11:1 12:1128299 17:1 18:1 20:46 21:18 22:7 23:2020
73 0:45 1:0.53 2:23 6:1 11:1 12:1185732 17:1 18:1 20:43 21:10 22:3 23:2021
650 0:42 1:0.35 2:90 7:1 11:1 12:1128299 17:1 20:36 21:23 22:7 23:2021
700 0:46 1:0.15 2:60 5:1 11:1 12:1128299 17:1 19:1 20:4 21:24 22:12 23:2020
175 0:46 1:0.6000000000000001 2:59 11:1 12:1128299 17:1 18:1 20:4 21:15 22:2 23:2021
250 0:26 1:0.55 2:50 11:1 12:1128299 17:1 19:1 20:27 21:6 22:1 23:2020
800 0:45 1:0.4 2:35 4:1 11:1 12:1185732 17:1 20:43 21:10 22:7 23:2021
400 0:47 1:0.3 2:70.00000000000001 6:1 11:1 12:1128299 17:1 20:46 21:16 22:7 23:2020
725 0:46 1:0.4500000000000001 2:65 11:1 12:1128299 17:1 19:1 20:4 21:28 22:1 23:2021
675 0:16 1:0.3 2:75.00000000000001 3:1 11:1 12:1128299 17:1 20:5 21:27 22:4 23:2020
109 0:45 1:0.37 2:24 4:1 11:1 12:1128299 17:1 19:1 20:43 21:24 22:1 23:2021
525 0:16 1:0.35 2:60 4:1 11:1 12:1128299 17:1 20:5 21:2 22:4 23:2020
259 0:46 1:0.3 2:66 3:1 11:1 12:1128299 17:1 18:1 20:4 21:19 22:1 23:2021
115 0:45 1:0.5 2:23 6:1 11:1 12:1185732 17:1 18:1 20:43 21:10 22:7 23:2021
400 0:42 1:0.4 2:45 7:1 11:1 12:1128299 17:1 20:36 21:17 22:2 23:2021
120 0:7 1:0.35 2:34 11:1 12:1197831 17:1 19:1 20:11 21:5 22:5 23:2021
117 0:45 1:0.45 2:29 4:1 11:1 12:1128299 17:1 18:1 20:43 21:24 22:2 23:2021
775 0:46 1:0.3 2:55.00000000000001 7:1 11:1 12:1128299 17:1 19:1 20:4 21:26 22:1 23:2021
135 0:47 1:0.37 2:63 7:1 11:1 12:1128299 17:1 18:1 20:46 21:15 22:7 23:2020
155 0:47 1:0.39 2:71 11:1 12:1128299 17:1 18:1 20:46 21:11 22:7 23:2020
153 0:45 1:0.41 2:22 4:1 11:1 12:1128299 17:1 19:1 20:43 21:24 22:2 23:2021
225 0:46 1:0.23 2:58 5:1 11:1 12:1128299 17:1 19:1 20:4 21:5 22:1 23:2021
775 0:42 1:0.35 2:54.99999999999999 4:1 11:1 12:1128299 17:1 20:36 21:24 22:6 23:2021
56 0:16 1:0.64 2:41 11:1 12:1128299 17:1 18:1 20:5 21:19 22:3 23:2020
750 0:42 1:0.35 2:75.00000000000003 3:1 11:1 12:1128299 17:1 20:36 21:23 22:12 23:2021
162 0:16 1:0.53 2:59 4:1 11:1 12:1128299 17:1 18:1 20:5 21:2 22:5 23:2020
130 0:16 1:0.31 2:73 5:1 11:1 12:1128299 17:1 18:1 20:5 21:19 22:5 23:2020
203 0:46 1:0.27 2:72 5:1 11:1 12:1128299 17:1 18:1 20:4 21:30 22:12 23:2020
218 0:26 1:0.53 2:58 4:1 11:1 12:1128299 17:1 18:1 20:27 21:7 22:2 23:2020
400 0:45 1:0.35 2:35 11:1 12:1185732 17:1 20:43 21:11 22:6 23:2021
525 0:42 1:0.35 2:80 6:1 11:1 12:1128299 17:1 20:36 21:24 22:6 23:2021
192 0:26 1:0.28 2:57 5:1 11:1 12:1128299 17:1 19:1 20:27 21:6 22:2 23:2020
132 0:45 1:0.34 2:28 5:1 11:1 12:1128299 17:1 19:1 20:43 21:24 22:1 23:2021
450 0:45 1:0.35 2:30 7:1 11:1 12:1185732 17:1 20:43 21:11 22:8 23:2021
280 0:46 1:0.18 2:39 3:1 11:1 12:1128299 17:1 19:1 20:4 21:31 22:1 23:2021
120 0:7 1:0.4 2:47 11:1 12:1197831 17:1 18:1 20:11 21:5 22:5 23:2021
231 0:46 1:0.23 2:39 3:1 11:1 12:1128299 17:1 19:1 20:4 21:14 22:11 23:2020
60 0:26 1:0.6200000000000001 2:44 11:1 12:1128299 17:1 19:1 20:27 21:18 22:1 23:2020
155 0:42 1:0.42 2:39 4:1 11:1 12:1128299 17:1 19:1 20:36 21:25 22:5 23:2021
136 0:45 1:0.39 2:14 3:1 11:1 12:1185732 17:1 19:1 20:43 21:11 22:11 23:2021
113 0:47 1:0.36 2:56 7:1 11:1 12:1128299 17:1 18:1 20:46 21:21 22:7 23:2020
250 0:42 1:0.4 2:45 6:1 11:1 12:1128299 17:1 20:36 21:17 22:1 23:2021
275 0:16 1:0.45 2:60 6:1 11:1 12:1128299 17:1 20:5 21:11 22:4 23:2020
350 0:45 1:0.35 2:30 11:1 12:1185732 17:1 20:43 21:11 22:8 23:2021
138 0:47 1:0.37 2:64 3:1 11:1 12:1128299 17:1 18:1 20:46 21:20 22:7 23:2020
241 0:7 1:0.5499999999999999 2:46 7:1 11:1 12:1197831 17:1 18:1 20:11 21:6 22:7 23:2021
575 0:47 1:0.2 2:100 5:1 11:1 12:1128299 17:1 20:46 21:6 22:7 23:2020
150 0:47 1:0.34 2:86 5:1 11:1 12:1128299 17:1 18:1 20:46 21:5 22:8 23:2020
500 0:47 1:0.2 2:80 5:1 11:1 12:1128299 17:1 20:46 21:24 22:6 23:2020
124 0:45 1:0.42 2:15 6:1 11:1 12:1185732 17:1 19:1 20:43 21:11 22:11 23:2021
152 0:26 1:0.42 2:42 6:1 11:1 12:1128299 17:1 19:1 20:27 21:16 22:2 23:2020
268 0:46 1:0.28 2:56 3:1 11:1 12:1128299 17:1 18:1 20:4 21:25 22:1 23:2021
750 0:26 1:0.4 2:60 4:1 11:1 12:1128299 17:1 19:1 20:27 21:7 22:2 23:2020
300 0:45 1:0.35 2:40 11:1 12:1185732 17:1 20:43 21:10 22:3 23:2021
94 0:26 1:0.25 2:68 5:1 11:1 12:1128299 17:1 18:1 20:27 21:2 22:3 23:2020
174 0:26 1:0.36 2:61 3:1 11:1 12:1128299 17:1 18:1 20:27 21:8 22:2 23:2020
113 0:45 1:0.65 2:43 5:1 11:1 12:1185732 17:1 18:1 20:43 21:11 22:11 23:2021
281 0:46 1:0.45 2:42 7:1 11:1 12:1128299 17:1 19:1 20:4 21:8 22:1 23:2021
375 0:47 1:0.25 2:85.00000000000001 11:1 12:1128299 17:1 20:46 21:29 22:6 23:2020
575 0:7 1:0.35 2:25 7:1 11:1 12:1197831 17:1 18:1 20:11 21:5 22:5 23:2021
240 0:7 1:0.55 2:33 5:1 11:1 12:1197831 17:1 19:1 20:11 21:5 22:5 23:2021
725 0:46 1:0.2 2:80 5:1 11:1 12:1128299 17:1 19:1 20:4 21:5 22:1 23:2021
176 0:7 1:0.5700000000000001 2:23 5:1 11:1 12:1197831 17:1 19:1 20:11 21:5 22:4 23:2021
143 0:26 1:0.53 2:61 7:1 11:1 12:1128299 17:1 18:1 20:27 21:9 22:2 23:2020
158 0:7 1:0.53 2:38 6:1 11:1 12:1197831 17:1 19:1 20:11 21:6 22:7 23:2021
125 0:47 1:0.31 2:46 5:1 11:1 12:1128299 17:1 18:1 20:46 21:31 22:5 23:2020
350 0:42 1:0.35 2:55.00000000000001 7:1 11:1 12:1128299 17:1 20:36 21:25 22:5 23:2021
161 0:16 1:0.55 2:67 7:1 11:1 12:1128299 17:1 18:1 20:5 21:22 22:4 23:2020
95 0:26 1:0.34 2:78 5:1 11:1 12:1128299 17:1 18:1 20:27 21:25 22:1 23:2020
88 0:26 1:0.6400000000000001 2:64 11:1 12:1128299 17:1 18:1 20:27 21:7 22:3 23:2020
271 0:46 1:0.38 2:40 4:1 11:1 12:1128299 17:1 19:1 20:4 21:25 22:12 23:2020
725 0:16 1:0.5 2:60 4:1 11:1 12:1128299 17:1 20:5 21:14 22:4 23:2020
775 0:46 1:0.25 2:55.00000000000001 6:1 11:1 12:1128299 17:1 19:1 20:4 21:14 22:2 23:2021
325 0:42 1:0.3 2:40 5:1 11:1 12:1128299 17:1 20:36 21:24 22:2 23:2021
75 0:7 1:0.45 2:37 11:1 12:1197831 17:1 18:1 20:11 21:6 22:3 23:2021
157 0:45 1:0.39 2:19 7:1 11:1 12:1185732 17:1 19:1 20:43 21:10 22:7 23:2021
171 0:26 1:0.45 2:47 7:1 11:1 12:1128299 17:1 19:1 20:27 21:9 22:2 23:2020
500 0:26 1:0.55 2:65 11:1 12:1128299 17:1 20:27 21:11 22:2 23:2020
600 0:26 1:0.25 2:80 5:1 11:1 12:1128299 17:1 19:1 20:27 21:6 22:2 23:2020
182 0:45 1:0.51 2:28 4:1 11:1 12:1185732 17:1 18:1 20:43 21:11 22:6 23:2021
450 0:42 1:0.35 2:45 5:1 11:1 12:1128299 17:1 20:36 21:17 22:1 23:2021
272 0:46 1:0.39 2:36 4:1 11:1 12:1128299 17:1 19:1 20:4 21:13 22:11 23:2020
117 0:7 1:0.43 2:52 11:1 12:1197831 17:1 18:1 20:11 21:4 22:6 23:2021
525 0:42 1:0.3 2:60 5:1 11:1 12:1128299 17:1 20:36 21:25 22:5 23:2021
400 0:47 1:0.2 2:80 5:1 11:1 12:1128299 17:1 20:46 21:12 22:7 23:2020
149 0:47 1:0.4 2:58 4:1 11:1 12:1128299 17:1 18:1 20:46 21:19 22:7 23:2020
450 0:47 1:0.25 2:50 7:1 11:1 12:1128299 17:1 20:46 21:3 22:6 23:2020
241 0:46 1:0.42 2:51 4:1 11:1 12:1128299 17:1 18:1 20:4 21:24 22:1 23:2021
184 0:45 1:0.5700000000000001 2:27 5:1 11:1 12:1185732 17:1 19:1 20:43 21:11 22:8 23:2021
160 0:26 1:0.55 2:43 4:1 11:1 12:1128299 17:1 18:1 20:27 21:14 22:1 23:2020
188 0:47 1:0.37 2:60 3:1 11:1 12:1128299 17:1 18:1 20:46 21:26 22:7 23:2020
500 0:46 1:0.5 2:55.00000000000001 11:1 12:1128299 17:1 19:1 20:4 21:11 22:11 23:2020
122 0:42 1:0.45 2:46 4:1 11:1 12:1128299 17:1 18:1 20:36 21:25 22:9 23:2021
850 0:46 1:0.35 2:50 4:1 11:1 12:1128299 17:1 19:1 20:4 21:13 22:11 23:2020
112 0:45 1:0.6 2:24 5:1 11:1 12:1185732 17:1 18:1 20:43 21:11 22:4 23:2021
345 0:45 1:0.35 2:20.00000000000001 7:1 11:1 12:1185732 17:1 20:43 21:11 22:11 23:2021
289 0:46 1:0.42 2:28 4:1 11:1 12:1128299 17:1 19:1 20:4 21:7 22:11 23:2020
550 0:42 1:0.35 2:85 6:1 11:1 12:1128299 17:1 20:36 21:23 22:7 23:2021
95 0:16 1:0.29 2:52 5:1 11:1 12:1128299 17:1 18:1 20:5 21:1 22:4 23:2020
275 0:26 1:0.35 2:45 6:1 11:1 12:1128299 17:1 19:1 20:27 21:11 22:1 23:2020
88 0:42 1:0.45 2:54 7:1 11:1 12:1128299 17:1 18:1 20:36 21:23 22:3 23:2021
475 0:26 1:0.2 2:45 5:1 11:1 12:1128299 17:1 19:1 20:27 21:7 22:1 23:2020
109 0:26 1:0.4500000000000001 2:54 7:1 11:1 12:1128299 17:1 18:1 20:27 21:27 22:2 23:2020
202 0:46 1:0.21 2:67 5:1 11:1 12:1128299 17:1 18:1 20:4 21:10 22:2 23:2021
575 0:47 1:0.25 2:75 11:1 12:1128299 17:1 20:46 21:11 22:7 23:2020
85 0:47 1:0.42 2:64 6:1 11:1 12:1128299 17:1 18:1 20:46 21:10 22:6 23:2020
500 0:42 1:0.35 2:50 4:1 11:1 12:1128299 17:1 20:36 21:25 22:5 23:2021
75 0:42 1:0.45 2:49 7:1 11:1 12:1128299 17:1 18:1 20:36 21:25 22:9 23:2021
225 0:42 1:0.35 2:45.00000000000001 6:1 11:1 12:1128299 17:1 20:36 21:24 22:4 23:2021
550 0:7 1:0.45 2:50 6:1 11:1 12:1197831 17:1 18:1 20:11 21:4 22:6 23:2021
83 0:42 1:0.42 2:39 7:1 11:1 12:1128299 17:1 19:1 20:36 21:25 22:9 23:2021
425 0:45 1:0.4 2:25.00000000000001 6:1 11:1 12:1185732 17:1 20:43 21:10 22:7 23:2021
224 0:45 1:0.52 2:34 4:1 11:1 12:1185732 17:1 18:1 20:43 21:10 22:7 23:2021
400 0:26 1:0.2 2:45 5:1 11:1 12:1128299 17:1 19:1 20:27 21:13 22:1 23:2020
200 0:46 1:0.47 2:60 7:1 11:1 12:1128299 17:1 18:1 20:4 21:20 22:1 23:2021
120 0:26 1:0.4 2:50 3:1 11:1 12:1128299 17:1 18:1 20:27 21:15 22:1 23:2020
124 0:45 1:0.47 2:14 6:1 11:1 12:1185732 17:1 19:1 20:43 21:11 22:8 23:2021
202 0:42 1:0.39 2:37 3:1 11:1 12:1128299 17:1 19:1 20:36 21:24 22:11 23:2021
100 0:45 1:0.5 2:19 3:1 11:1 12:1185732 17:1 18:1 20:43 21:11 22:10 23:2021
239 0:46 1:0.25 2:36 3:1 11:1 12:1128299 17:1 19:1 20:4 21:8 22:11 23:2020
725 0:46 1:0.15 2:80 5:1 11:1 12:1128299 17:1 19:1 20:4 21:23 22:1 23:2021
450 0:26 1:0.25 2:80 5:1 11:1 12:1128299 17:1 19:1 20:27 21:31 22:1 23:2020
46 0:47 1:0.38 2:69 11:1 12:1128299 17:1 18:1 20:46 21:11 22:6 23:2020
105 0:45 1:0.46 2:29 11:1 12:1185732 17:1 18:1 20:43 21:11 22:8 23:2021
575 0:42 1:0.3 2:85.00000000000001 5:1 11:1 12:1128299 17:1 20:36 21:23 22:12 23:2021
525 0:42 1:0.35 2:55.00000000000001 3:1 11:1 12:1128299 17:1 20:36 21:24 22:10 23:2021
263 0:46 1:0.24 2:49 3:1 11:1 12:1128299 17:1 19:1 20:4 21:13 22:1 23:2021
750 0:47 1:0.25 2:80.00000000000001 3:1 11:1 12:1128299 17:1 20:46 21:8 22:7 23:2020
775 0:7 1:0.4 2:50 4:1 11:1 12:1197831 17:1 18:1 20:11 21:6 22:7 23:2021
173 0:42 1:0.36 2:46 5:1 11:1 12:1128299 17:1 19:1 20:36 21:25 22:5 23:2021
113 0:16 1:0.5 2:61 7:1 11:1 12:1128299 17:1 18:1 20:5 21:4 22:4 23:2020
84 0:42 1:0.45 2:59 5:1 11:1 12:1128299 17:1 18:1 20:36 21:24 22:4 23:2021
138 0:7 1:0.61 2:28 5:1 11:1 12:1197831 17:1 18:1 20:11 21:5 22:4 23:2021
107 0:45 1:0.42 2:14 7:1 11:1 12:1185732 17:1 19:1 20:43 21:11 22:11 23:2021
400 0:45 1:0.4 2:30 6:1 11:1 12:1185732 17:1 20:43 21:10 22:12 23:2021
203 0:46 1:0.35 2:53 6:1 11:1 12:1128299 17:1 18:1 20:4 21:27 22:1 23:2021
94 0:45 1:0.43 2:19 6:1 11:1 12:1185732 17:1 19:1 20:43 21:12 22:5 23:2021
156 0:47 1:0.41 2:64 4:1 11:1 12:1128299 17:1 18:1 20:46 21:13 22:7 23:2020
140 0:45 1:0.38 2:28 11:1 12:1185732 17:1 19:1 20:43 21:10 22:7 23:2021
189 0:26 1:0.5700000000000001 2:56 4:1 11:1 12:1128299 17:1 18:1 20:27 21:1 22:2 23:2020
210 0:46 1:0.5 2:64 7:1 11:1 12:1128299 17:1 18:1 20:4 21:27 22:12 23:2020
475 0:26 1:0.15 2:75.00000000000001 5:1 11:1 12:1128299 17:1 20:27 21:8 22:3 23:2020
210 0:46 1:0.42 2:47 7:1 11:1 12:1128299 17:1 19:1 20:4 21:15 22:11 23:2020
525 0:46 1:0.5 2:65 11:1 12:1128299 17:1 19:1 20:4 21:29 22:12 23:2020
138 0:47 1:0.43 2:76 6:1 11:1 12:1128299 17:1 18:1 20:46 21:3 22:8 23:2020
137 0:16 1:0.5 2:51 4:1 11:1 12:1128299 17:1 18:1 20:5 21:8 22:5 23:2020
400 0:47 1:0.25 2:65 3:1 11:1 12:1128299 17:1 20:46 21:20 22:6 23:2020
750 0:7 1:0.35 2:50 3:1 11:1 12:1197831 17:1 18:1 20:11 21:4 22:6 23:2021
293 0:46 1:0.4 2:51 4:1 11:1 12:1128299 17:1 18:1 20:4 21:11 22:2 23:2021
150 0:45 1:0.65 2:38 5:1 11:1 12:1185732 17:1 18:1 20:43 21:10 22:7 23:2021
700 0:46 1:0.3 2:55.00000000000001 7:1 11:1 12:1128299 17:1 19:1 20:4 21:1 22:2 23:2021
275 0:45 1:0.4 2:25.00000000000001 6:1 11:1 12:1185732 17:1 20:43 21:12 22:5 23:2021
165 0:46 1:0.5700000000000001 2:42 11:1 12:1128299 17:1 19:1 20:4 21:11 22:11 23:2020
400 0:26 1:0.3 2:65 3:1 11:1 12:1128299 17:1 19:1 20:27 21:27 22:1 23:2020
375 0:26 1:0.15 2:75.00000000000001 5:1 11:1 12:1128299 17:1 20:27 21:2 22:3 23:2020
101 0:45 1:0.49 2:29 3:1 11:1 12:1185732 17:1 18:1 20:43 21:12 22:5 23:2021
111 0:26 1:0.51 2:58 6:1 11:1 12:1128299 17:1 18:1 20:27 21:4 22:2 23:2020
625 0:47 1:0.25 2:85.00000000000001 7:1 11:1 12:1128299 17:1 20:46 21:3 22:7 23:2020
138 0:47 1:0.31 2:88 5:1 11:1 12:1128299 17:1 18:1 20:46 21:30 22:7 23:2020
700 0:42 1:0.3 2:105 5:1 11:1 12:1128299 17:1 20:36 21:24 22:6 23:2021
85 0:16 1:0.46 2:53 6:1 11:1 12:1128299 17:1 18:1 20:5 21:11 22:5 23:2020
875 0:46 1:0.2 2:65 3:1 11:1 12:1128299 17:1 19:1 20:4 21:13 22:1 23:2021
233 0:46 1:0.4 2:52 7:1 11:1 12:1128299 17:1 18:1 20:4 21:13 22:2 23:2021
223 0:46 1:0.3099999999999999 2:42 6:1 11:1 12:1128299 17:1 19:1 20:4 21:2 22:2 23:2021
170 0:45 1:0.52 2:29 5:1 11:1 12:1185732 17:1 19:1 20:43 21:10 22:12 23:2021
650 0:7 1:0.35 2:20 4:1 11:1 12:1197831 17:1 18:1 20:11 21:5 22:4 23:2021
145 0:42 1:0.45 2:48 4:1 11:1 12:1128299 17:1 18:1 20:36 21:25 22:5 23:2021
116 0:16 1:0.27 2:37 5:1 11:1 12:1128299 17:1 18:1 20:5 21:26 22:3 23:2020
117 0:26 1:0.5 2:57 7:1 11:1 12:1128299 17:1 18:1 20:27 21:21 22:2 23:2020
217 0:46 1:0.24 2:65 5:1 11:1 12:1128299 17:1 18:1 20:4 21:29 22:1 23:2021
124 0:26 1:0.35 2:43 6:1 11:1 12:1128299 17:1 19:1 20:27 21:22 22:2 23:2020
218 0:46 1:0.5800000000000001 2:63 11:1 12:1128299 17:1 18:1 20:4 21:28 22:1 23:2021
170 0:45 1:0.42 2:22 3:1 11:1 12:1185732 17:1 19:1 20:43 21:10 22:12 23:2021
143 0:16 1:0.5700000000000001 2:67 7:1 11:1 12:1128299 17:1 18:1 20:5 21:28 22:4 23:2020
112 0:45 1:0.5 2:18 7:1 11:1 12:1185732 17:1 18:1 20:43 21:10 22:3 23:2021
350 0:42 1:0.3 2:60.00000000000001 5:1 11:1 12:1128299 17:1 20:36 21:24 22:10 23:2021
575 0:46 1:0.3 2:50 6:1 11:1 12:1128299 17:1 19:1 20:4 21:10 22:11 23:2020
550 0:26 1:0.35 2:60.00000000000001 4:1 11:1 12:1128299 17:1 20:27 21:25 22:2 23:2020
450 0:16 1:0.3 2:40 4:1 11:1 12:1128299 17:1 20:5 21:26 22:5 23:2020
700 0:16 1:0.25 2:70.00000000000001 3:1 11:1 12:1128299 17:1 20:5 21:21 22:5 23:2020
30 0:42 1:0.44 2:43 11:1 12:1128299 17:1 19:1 20:36 21:23 22:3 23:2021
264 0:7 1:0.46 2:35 4:1 11:1 12:1197831 17:1 19:1 20:11 21:6 22:7 23:2021
550 0:26 1:0.45 2:60 4:1 11:1 12:1128299 17:1 19:1 20:27 21:26 22:1 23:2020
425 0:16 1:0.35 2:40 7:1 11:1 12:1128299 17:1 20:5 21:23 22:3 23:2020
109 0:42 1:0.37 2:37 7:1 11:1 12:1128299 17:1 19:1 20:36 21:24 22:10 23:2021
550 0:47 1:0.3 2:60 4:1 11:1 12:1128299 17:1 20:46 21:19 22:6 23:2020
750 0:46 1:0.3 2:65 6:1 11:1 12:1128299 17:1 19:1 20:4 21:21 22:1 23:2021
500 0:7 1:0.45 2:35 6:1 11:1 12:1197831 17:1 18:1 20:11 21:5 22:5 23:2021
138 0:26 1:0.49 2:56 4:1 11:1 12:1128299 17:1 18:1 20:27 21:25 22:2 23:2020
123 0:45 1:0.38 2:28 11:1 12:1185732 17:1 19:1 20:43 21:11 22:11 23:2021
400 0:7 1:0.3 2:50 11:1 12:1197831 17:1 18:1 20:11 21:5 22:5 23:2021
155 0:47 1:0.35 2:95 5:1 11:1 12:1128299 17:1 18:1 20:46 21:6 22:7 23:2020
87 0:45 1:0.5 2:19 6:1 11:1 12:1185732 17:1 18:1 20:43 21:11 22:2 23:2021
132 0:45 1:0.43 2:13 6:1 11:1 12:1185732 17:1 19:1 20:43 21:11 22:6 23:2021
105 0:16 1:0.46 2:60 3:1 11:1 12:1128299 17:1 18:1 20:5 21:9 22:4 23:2020
106 0:16 1:0.31 2:65 5:1 11:1 12:1128299 17:1 18:1 20:5 21:7 22:5 23:2020
250 0:7 1:0.3 2:40 11:1 12:1197831 17:1 18:1 20:11 21:6 22:3 23:2021
160 0:45 1:0.48 2:29 3:1 11:1 12:1185732 17:1 18:1 20:43 21:10 22:7 23:2021
138 0:45 1:0.48 2:24 7:1 11:1 12:1185732 17:1 18:1 20:43 21:10 22:7 23:2021
625 0:47 1:0.25 2:65.00000000000001 3:1 11:1 12:1128299 17:1 20:46 21:26 22:7 23:2020
170 0:46 1:0.54 2:51 11:1 12:1128299 17:1 19:1 20:4 21:23 22:12 23:2020
128 0:16 1:0.53 2:51 7:1 11:1 12:1128299 17:1 18:1 20:5 21:16 22:5 23:2020
233 0:46 1:0.64 2:64 11:1 12:1128299 17:1 18:1 20:4 21:16 22:1 23:2021
210 0:47 1:0.39 2:77 3:1 11:1 12:1128299 17:1 18:1 20:46 21:8 22:7 23:2020
98 0:16 1:0.6 2:59 7:1 11:1 12:1128299 17:1 18:1 20:5 21:10 22:4 23:2020
400 0:16 1:0.35 2:65.00000000000001 6:1 11:1 12:1128299 17:1 20:5 21:5 22:5 23:2020
173 0:42 1:0.46 2:44 4:1 11:1 12:1128299 17:1 18:1 20:36 21:24 22:11 23:2021
72 0:45 1:0.55 2:19 6:1 11:1 12:1185732 17:1 18:1 20:43 21:11 22:10 23:2021
575 0:47 1:0.3 2:50 4:1 11:1 12:1128299 17:1 20:46 21:7 22:6 23:2020
775 0:46 1:0.1 2:70 5:1 11:1 12:1128299 17:1 19:1 20:4 21:29 22:1 23:2021
350 0:45 1:0.35 2:40 7:1 11:1 12:1128299 17:1 20:43 21:24 22:1 23:2021
210 0:46 1:0.49 2:59 6:1 11:1 12:1128299 17:1 18:1 20:4 21:9 22:1 23:2021
202 0:7 1:0.52 2:52 3:1 11:1 12:1197831 17:1 18:1 20:11 21:6 22:7 23:2021
725 0:46 1:0.2 2:50 3:1 11:1 12:1128299 17:1 19:1 20:4 21:8 22:11 23:2020
102 0:42 1:0.47 2:38 4:1 11:1 12:1128299 17:1 18:1 20:36 21:24 22:10 23:2021
218 0:46 1:0.4 2:55 6:1 11:1 12:1128299 17:1 18:1 20:4 21:15 22:1 23:2021
188 0:47 1:0.4 2:78 4:1 11:1 12:1128299 17:1 18:1 20:46 21:31 22:7 23:2020
450 0:16 1:0.25 2:50 7:1 11:1 12:1128299 17:1 20:5 21:28 22:5 23:2020
154 0:46 1:0.66 2:60 11:1 12:1128299 17:1 18:1 20:4 21:4 22:1 23:2021
550 0:42 1:0.35 2:70.00000000000001 7:1 11:1 12:1128299 17:1 20:36 21:23 22:12 23:2021
450 0:47 1:0.25 2:50 3:1 11:1 12:1128299 17:1 20:46 21:2 22:6 23:2020
90 0:47 1:0.42 2:55 6:1 11:1 12:1128299 17:1 18:1 20:46 21:16 22:6 23:2020
400 0:26 1:0.45 2:65 7:1 11:1 12:1128299 17:1 19:1 20:27 21:28 22:1 23:2020
300 0:26 1:0.4 2:60 6:1 11:1 12:1128299 17:1 19:1 20:27 21:29 22:1 23:2020
169 0:42 1:0.49 2:62 3:1 11:1 12:1128299 17:1 18:1 20:36 21:24 22:6 23:2021
182 0:46 1:0.42 2:50 7:1 11:1 12:1128299 17:1 18:1 20:4 21:1 22:2 23:2021
575 0:16 1:0.4 2:55.00000000000001 4:1 11:1 12:1128299 17:1 20:5 21:14 22:5 23:2020
98 0:16 1:0.25 2:72 5:1 11:1 12:1128299 17:1 18:1 20:5 21:7 22:4 23:2020
125 0:45 1:0.61 2:42 5:1 11:1 12:1185732 17:1 18:1 20:43 21:10 22:12 23:2021
775 0:46 1:0.1 2:70 5:1 11:1 12:1128299 17:1 19:1 20:4 21:10 22:2 23:2021
188 0:42 1:0.48 2:61 4:1 11:1 12:1128299 17:1 18:1 20:36 21:23 22:12 23:2021
152 0:16 1:0.35 2:54 3:1 11:1 12:1128299 17:1 18:1 20:5 21:9 22:5 23:2020
475 0:26 1:0.35 2:65 6:1 11:1 12:1128299 17:1 20:27 21:16 22:2 23:2020
175 0:47 1:0.35 2:78 7:1 11:1 12:1128299 17:1 18:1 20:46 21:3 22:7 23:2020
200 0:47 1:0.25 2:65 11:1 12:1128299 17:1 20:46 21:17 22:6 23:2020
210 0:7 1:0.42 2:14 4:1 11:1 12:1197831 17:1 19:1 20:11 21:5 22:5 23:2021
113 0:45 1:0.47 2:29 7:1 11:1 12:1185732 17:1 18:1 20:43 21:10 22:12 23:2021
120 0:42 1:0.52 2:41 7:1 11:1 12:1128299 17:1 18:1 20:36 21:17 22:2 23:2021
201 0:45 1:0.47 2:24 4:1 11:1 12:1185732 17:1 19:1 20:43 21:11 22:10 23:2021
400 0:47 1:0.25 2:75 7:1 11:1 12:1128299 17:1 20:46 21:15 22:6 23:2020
210 0:46 1:0.29 2:37 6:1 11:1 12:1128299 17:1 19:1 20:4 21:8 22:2 23:2021
115 0:16 1:0.6700000000000002 2:68 11:1 12:1128299 17:1 18:1 20:5 21:24 22:5 23:2020
300 0:16 1:0.5500000000000002 2:65 11:1 12:1128299 17:1 20:5 21:12 22:5 23:2020
248 0:7 1:0.55 2:39 5:1 11:1 12:1197831 17:1 19:1 20:11 21:4 22:6 23:2021
123 0:26 1:0.33 2:38 3:1 11:1 12:1128299 17:1 18:1 20:27 21:16 22:3 23:2020
275 0:45 1:0.4 2:20 6:1 11:1 12:1185732 17:1 20:43 21:11 22:10 23:2021
175 0:26 1:0.55 2:60 11:1 12:1128299 17:1 19:1 20:27 21:18 22:1 23:2020
85 0:26 1:0.41 2:30 6:1 11:1 12:1128299 17:1 19:1 20:27 21:11 22:1 23:2020
58 0:16 1:0.62 2:43 11:1 12:1128299 17:1 18:1 20:5 21:25 22:3 23:2020
240 0:42 1:0.38 2:43 4:1 11:1 12:1128299 17:1 19:1 20:36 21:24 22:6 23:2021
65 0:42 1:0.48 2:49 6:1 11:1 12:1128299 17:1 18:1 20:36 21:23 22:3 23:2021
165 0:42 1:0.45 2:67 7:1 11:1 12:1128299 17:1 18:1 20:36 21:23 22:12 23:2021
88 0:45 1:0.39 2:24 11:1 12:1185732 17:1 19:1 20:43 21:11 22:4 23:2021
78 0:16 1:0.41 2:49 6:1 11:1 12:1128299 17:1 18:1 20:5 21:29 22:5 23:2020
800 0:46 1:0.1 2:70 5:1 11:1 12:1128299 17:1 19:1 20:4 21:16 22:2 23:2021
208 0:45 1:0.43 2:21 4:1 11:1 12:1185732 17:1 19:1 20:43 21:11 22:6 23:2021
825 0:7 1:0.5 2:60.00000000000001 5:1 11:1 12:1197831 17:1 18:1 20:11 21:4 22:6 23:2021
194 0:46 1:0.4 2:51 6:1 11:1 12:1128299 17:1 18:1 20:4 21:14 22:2 23:2021
72 0:7 1:0.43 2:34 11:1 12:1197831 17:1 18:1 20:11 21:5 22:4 23:2021
400 0:26 1:0.2 2:80 5:1 11:1 12:1128299 17:1 20:27 21:18 22:2 23:2020
400 0:16 1:0.2 2:49.99999999999999 3:1 11:1 12:1128299 17:1 20:5 21:28 22:3 23:2020
105 0:16 1:0.6900000000000002 2:68 11:1 12:1128299 17:1 18:1 20:5 21:18 22:5 23:2020
450 0:47 1:0.3 2:70.00000000000001 6:1 11:1 12:1128299 17:1 20:46 21:28 22:7 23:2020
725 0:7 1:0.35 2:30 3:1 11:1 12:1197831 17:1 18:1 20:11 21:5 22:5 23:2021
196 0:46 1:0.23 2:63 5:1 11:1 12:1128299 17:1 18:1 20:4 21:4 22:2 23:2021
135 0:16 1:0.54 2:63 6:1 11:1 12:1128299 17:1 18:1 20:5 21:29 22:4 23:2020
75 0:45 1:0.42 2:20 6:1 11:1 12:1185732 17:1 19:1 20:43 21:10 22:3 23:2021
247 0:46 1:0.27 2:39 6:1 11:1 12:1128299 17:1 19:1 20:4 21:27 22:1 23:2021
254 0:46 1:0.39 2:46 7:1 11:1 12:1128299 17:1 19:1 20:4 21:27 22:12 23:2020
525 0:26 1:0.4 2:65 7:1 11:1 12:1128299 17:1 20:27 21:15 22:2 23:2020
155 0:46 1:0.66 2:62 11:1 12:1128299 17:1 18:1 20:4 21:10 22:1 23:2021
119 0:42 1:0.46 2:68 6:1 11:1 12:1128299 17:1 18:1 20:36 21:24 22:8 23:2021
75 0:45 1:0.5 2:38 11:1 12:1185732 17:1 18:1 20:43 21:10 22:3 23:2021
93 0:45 1:0.42 2:16 6:1 11:1 12:1185732 17:1 19:1 20:43 21:11 22:2 23:2021
700 0:46 1:0.2 2:60 3:1 11:1 12:1128299 17:1 19:1 20:4 21:14 22:11 23:2020
156 0:42 1:0.5 2:84 11:1 12:1128299 17:1 18:1 20:36 21:23 22:7 23:2021
131 0:45 1:0.62 2:24 5:1 11:1 12:1185732 17:1 18:1 20:43 21:11 22:2 23:2021
425 0:26 1:0.35 2:30 4:1 11:1 12:1128299 17:1 20:27 21:15 22:3 23:2020
175 0:47 1:0.25 2:70 11:1 12:1128299 17:1 20:46 21:11 22:6 23:2020
52 0:47 1:0.38 2:60 11:1 12:1128299 17:1 18:1 20:46 21:23 22:6 23:2020
219 0:46 1:0.29 2:59 3:1 11:1 12:1128299 17:1 18:1 20:4 21:31 22:1 23:2021
475 0:16 1:0.3 2:80 5:1 11:1 12:1128299 17:1 20:5 21:13 22:4 23:2020
825 0:46 1:0.35 2:65 7:1 11:1 12:1128299 17:1 19:1 20:4 21:14 22:1 23:2021
325 0:42 1:0.35 2:50 3:1 11:1 12:1128299 17:1 20:36 21:23 22:3 23:2021
300 0:45 1:0.4 2:20.00000000000001 6:1 11:1 12:1185732 17:1 20:43 21:11 22:2 23:2021
1025 0:46 1:0.35 2:60 4:1 11:1 12:1128299 17:1 19:1 20:4 21:12 22:1 23:2021
190 0:45 1:0.54 2:32 5:1 11:1 12:1185732 17:1 19:1 20:43 21:11 22:6 23:2021
256 0:46 1:0.3300000000000001 2:44 7:1 11:1 12:1128299 17:1 19:1 20:4 21:13 22:2 23:2021
425 0:26 1:0.35 2:60.00000000000001 7:1 11:1 12:1128299 17:1 20:27 21:5 22:3 23:2020
600 0:42 1:0.4 2:90 11:1 12:1128299 17:1 20:36 21:23 22:7 23:2021
200 0:26 1:0.6000000000000001 2:65 11:1 12:1128299 17:1 19:1 20:27 21:30 22:1 23:2020
196 0:46 1:0.6100000000000001 2:44 11:1 12:1128299 17:1 19:1 20:4 21:10 22:1 23:2021
575 0:46 1:0.5 2:55.00000000000001 11:1 12:1128299 17:1 19:1 20:4 21:5 22:11 23:2020
150 0:26 1:0.34 2:64 3:1 11:1 12:1128299 17:1 18:1 20:27 21:4 22:3 23:2020
123 0:45 1:0.42 2:29 3:1 11:1 12:1128299 17:1 19:1 20:43 21:24 22:2 23:2021
425 0:45 1:0.35 2:20.00000000000001 7:1 11:1 12:1185732 17:1 20:43 21:11 22:6 23:2021
218 0:7 1:0.63 2:42 5:1 11:1 12:1197831 17:1 18:1 20:11 21:5 22:5 23:2021
52 0:42 1:0.46 2:49 6:1 11:1 12:1128299 17:1 18:1 20:36 21:25 22:9 23:2021
145 0:46 1:0.63 2:62 11:1 12:1128299 17:1 18:1 20:4 21:23 22:12 23:2020
200 0:16 1:0.5 2:45 11:1 12:1128299 17:1 20:5 21:25 22:3 23:2020
248 0:45 1:0.47 2:27 4:1 11:1 12:1185732 17:1 19:1 20:43 21:11 22:8 23:2021
203 0:46 1:0.3 2:62 3:1 11:1 12:1128299 17:1 18:1 20:4 21:26 22:12 23:2020
298 0:42 1:0.42 2:60 4:1 11:1 12:1128299 17:1 19:1 20:36 21:23 22:7 23:2021
125 0:47 1:0.4 2:75 6:1 11:1 12:1128299 17:1 18:1 20:46 21:28 22:6 23:2020
188 0:7 1:0.48 2:46 3:1 11:1 12:1197831 17:1 18:1 20:11 21:4 22:6 23:2021
550 0:26 1:0.4 2:60 4:1 11:1 12:1128299 17:1 19:1 20:27 21:20 22:1 23:2020
180 0:26 1:0.27 2:51 3:1 11:1 12:1128299 17:1 19:1 20:27 21:20 22:2 23:2020
150 0:16 1:0.55 2:52 4:1 11:1 12:1128299 17:1 18:1 20:5 21:14 22:5 23:2020
196 0:16 1:0.5900000000000001 2:63 4:1 11:1 12:1128299 17:1 18:1 20:5 21:26 22:4 23:2020
175 0:42 1:0.4 2:44.99999999999999 11:1 12:1128299 17:1 20:36 21:25 22:5 23:2021
325 0:47 1:0.25 2:70 11:1 12:1128299 17:1 20:46 21:23 22:7 23:2020
115 0:26 1:0.46 2:39 7:1 11:1 12:1128299 17:1 18:1 20:27 21:17 22:3 23:2020
550 0:26 1:0.45 2:65 7:1 11:1 12:1128299 17:1 19:1 20:27 21:3 22:2 23:2020
131 0:16 1:0.47 2:55 4:1 11:1 12:1128299 17:1 18:1 20:5 21:2 22:4 23:2020
475 0:16 1:0.4 2:65 6:1 11:1 12:1128299 17:1 20:5 21:23 22:4 23:2020
233 0:26 1:0.44 2:48 4:1 11:1 12:1128299 17:1 19:1 20:27 21:7 22:2 23:2020
150 0:46 1:0.42 2:47 6:1 11:1 12:1128299 17:1 18:1 20:4 21:10 22:11 23:2020
550 0:47 1:0.2 2:95.00000000000001 5:1 11:1 12:1128299 17:1 20:46 21:30 22:7 23:2020
725 0:16 1:0.45 2:70 4:1 11:1 12:1128299 17:1 20:5 21:26 22:4 23:2020
775 0:46 1:0.3 2:55.00000000000001 7:1 11:1 12:1128299 17:1 19:1 20:4 21:13 22:2 23:2021
250 0:42 1:0.3 2:75 5:1 11:1 12:1128299 17:1 20:36 21:24 22:8 23:2021
550 0:42 1:0.35 2:70.00000000000001 6:1 11:1 12:1128299 17:1 20:36 21:23 22:12 23:2021
450 0:45 1:0.35 2:30 4:1 11:1 12:1128299 17:1 20:43 21:24 22:2 23:2021
124 0:42 1:0.4399999999999999 2:31 3:1 11:1 12:1128299 17:1 19:1 20:36 21:17 22:1 23:2021
68 0:42 1:0.5499999999999999 2:41 6:1 11:1 12:1128299 17:1 18:1 20:36 21:17 22:1 23:2021
224 0:46 1:0.41 2:41 6:1 11:1 12:1128299 17:1 19:1 20:4 21:9 22:1 23:2021
302 0:46 1:0.4 2:45 4:1 11:1 12:1128299 17:1 19:1 20:4 21:18 22:1 23:2021
245 0:46 1:0.52 2:43 11:1 12:1128299 17:1 19:1 20:4 21:15 22:2 23:2021
165 0:26 1:0.35 2:59 3:1 11:1 12:1128299 17:1 18:1 20:27 21:26 22:2 23:2020
158 0:45 1:0.41 2:23 7:1 11:1 12:1185732 17:1 19:1 20:43 21:11 22:8 23:2021
75 0:26 1:0.46 2:59 6:1 11:1 12:1128299 17:1 18:1 20:27 21:23 22:1 23:2020
200 0:42 1:0.35 2:40 6:1 11:1 12:1128299 17:1 20:36 21:24 22:2 23:2021
88 0:45 1:0.45 2:36 7:1 11:1 12:1128299 17:1 18:1 20:43 21:24 22:2 23:2021
675 0:46 1:0.2 2:65 3:1 11:1 12:1128299 17:1 19:1 20:4 21:26 22:12 23:2020
675 0:26 1:0.35 2:60.00000000000001 4:1 11:1 12:1128299 17:1 20:27 21:9 22:3 23:2020
208 0:42 1:0.39 2:53 7:1 11:1 12:1128299 17:1 19:1 20:36 21:24 22:6 23:2021
750 0:46 1:0.5 2:75 11:1 12:1128299 17:1 19:1 20:4 21:22 22:1 23:2021
165 0:42 1:0.48 2:82 6:1 11:1 12:1128299 17:1 18:1 20:36 21:23 22:7 23:2021
625 0:47 1:0.25 2:80 3:1 11:1 12:1128299 17:1 20:46 21:26 22:6 23:2020
700 0:46 1:0.15 2:80 5:1 11:1 12:1128299 17:1 19:1 20:4 21:30 22:12 23:2020
264 0:46 1:0.15 2:51 5:1 11:1 12:1128299 17:1 19:1 20:4 21:29 22:1 23:2021
108 0:42 1:0.53 2:86 11:1 12:1128299 17:1 18:1 20:36 21:24 22:6 23:2021
525 0:7 1:0.5 2:50 6:1 11:1 12:1197831 17:1 18:1 20:11 21:6 22:7 23:2021
500 0:16 1:0.4 2:70 6:1 11:1 12:1128299 17:1 20:5 21:29 22:4 23:2020
525 0:26 1:0.4 2:35 4:1 11:1 12:1128299 17:1 19:1 20:27 21:8 22:1 23:2020
173 0:45 1:0.51 2:28 4:1 11:1 12:1185732 17:1 18:1 20:43 21:11 22:10 23:2021
233 0:46 1:0.27 2:51 3:1 11:1 12:1128299 17:1 19:1 20:4 21:1 22:1 23:2021
168 0:16 1:0.36 2:69 3:1 11:1 12:1128299 17:1 18:1 20:5 21:3 22:5 23:2020
475 0:26 1:0.35 2:60.00000000000001 7:1 11:1 12:1128299 17:1 20:27 21:11 22:3 23:2020
475 0:42 1:0.4 2:80.00000000000001 11:1 12:1128299 17:1 20:36 21:23 22:12 23:2021
450 0:16 1:0.4 2:65.00000000000001 7:1 11:1 12:1128299 17:1 20:5 21:4 22:5 23:2020
350 0:42 1:0.35 2:54.99999999999999 7:1 11:1 12:1128299 17:1 20:36 21:23 22:3 23:2021
210 0:46 1:0.3300000000000001 2:42 7:1 11:1 12:1128299 17:1 19:1 20:4 21:1 22:2 23:2021
400 0:16 1:0.5500000000000002 2:75.00000000000001 11:1 12:1128299 17:1 20:5 21:6 22:5 23:2020
95 0:42 1:0.5 2:50 7:1 11:1 12:1128299 17:1 18:1 20:36 21:25 22:5 23:2021
189 0:42 1:0.46 2:78 7:1 11:1 12:1128299 17:1 18:1 20:36 21:24 22:6 23:2021
350 0:45 1:0.35 2:40 11:1 12:1185732 17:1 20:43 21:11 22:11 23:2021
120 0:26 1:0.6100000000000001 2:67 11:1 12:1128299 17:1 18:1 20:27 21:23 22:2 23:2020
132 0:42 1:0.4299999999999999 2:34 7:1 11:1 12:1128299 17:1 19:1 20:36 21:17 22:2 23:2021
450 0:47 1:0.2 2:65 5:1 11:1 12:1128299 17:1 20:46 21:18 22:7 23:2020
202 0:16 1:0.6 2:64 4:1 11:1 12:1128299 17:1 18:1 20:5 21:20 22:4 23:2020
225 0:46 1:0.36 2:64 3:1 11:1 12:1128299 17:1 18:1 20:4 21:1 22:1 23:2021
52 0:26 1:0.66 2:63 11:1 12:1128299 17:1 18:1 20:27 21:24 22:1 23:2020
850 0:42 1:0.35 2:85 4:1 11:1 12:1128299 17:1 20:36 21:23 22:7 23:2021
650 0:46 1:0.4500000000000001 2:65 11:1 12:1128299 17:1 19:1 20:4 21:3 22:2 23:2021
525 0:16 1:0.4 2:55.00000000000001 4:1 11:1 12:1128299 17:1 20:5 21:8 22:5 23:2020
107 0:26 1:0.5400000000000001 2:48 11:1 12:1128299 17:1 19:1 20:27 21:1 22:3 23:2020
113 0:16 1:0.5 2:60 7:1 11:1 12:1128299 17:1 18:1 20:5 21:4 22:5 23:2020
167 0:47 1:0.45 2:46 4:1 11:1 12:1128299 17:1 18:1 20:46 21:7 22:6 23:2020
128 0:42 1:0.49 2:38 4:1 11:1 12:1128299 17:1 18:1 20:36 21:23 22:3 23:2021
75 0:42 1:0.37 2:39 6:1 11:1 12:1128299 17:1 19:1 20:36 21:23 22:3 23:2021
113 0:26 1:0.42 2:47 7:1 11:1 12:1128299 17:1 19:1 20:27 21:27 22:2 23:2020
450 0:47 1:0.25 2:70.00000000000001 7:1 11:1 12:1128299 17:1 20:46 21:15 22:7 23:2020
124 0:7 1:0.53 2:25 5:1 11:1 12:1197831 17:1 19:1 20:11 21:6 22:3 23:2021
75 0:42 1:0.54 2:51 11:1 12:1128299 17:1 18:1 20:36 21:24 22:10 23:2021
111 0:42 1:0.54 2:68 11:1 12:1128299 17:1 18:1 20:36 21:24 22:11 23:2021
85 0:42 1:0.48 2:45 3:1 11:1 12:1128299 17:1 18:1 20:36 21:23 22:3 23:2021
450 0:26 1:0.35 2:60.00000000000001 7:1 11:1 12:1128299 17:1 20:27 21:21 22:2 23:2020
775 0:42 1:0.35 2:80 3:1 11:1 12:1128299 17:1 20:36 21:24 22:8 23:2021
233 0:42 1:0.4 2:56 3:1 11:1 12:1128299 17:1 19:1 20:36 21:23 22:12 23:2021
158 0:7 1:0.34 2:43 11:1 12:1197831 17:1 19:1 20:11 21:4 22:6 23:2021
166 0:26 1:0.42 2:47 7:1 11:1 12:1128299 17:1 19:1 20:27 21:11 22:3 23:2020
175 0:46 1:0.3 2:58 3:1 11:1 12:1128299 17:1 18:1 20:4 21:14 22:11 23:2020
170 0:26 1:0.18 2:56 5:1 11:1 12:1128299 17:1 19:1 20:27 21:14 22:3 23:2020
155 0:7 1:0.5 2:24 6:1 11:1 12:1197831 17:1 19:1 20:11 21:5 22:5 23:2021
400 0:45 1:0.5 2:30 5:1 11:1 12:1185732 17:1 20:43 21:10 22:3 23:2021
109 0:42 1:0.4 2:36 3:1 11:1 12:1128299 17:1 19:1 20:36 21:25 22:5 23:2021
123 0:42 1:0.37 2:41 5:1 11:1 12:1128299 17:1 19:1 20:36 21:24 22:10 23:2021
108 0:26 1:0.41 2:56 6:1 11:1 12:1128299 17:1 18:1 20:27 21:6 22:3 23:2020
236 0:46 1:0.4500000000000001 2:51 4:1 11:1 12:1128299 17:1 18:1 20:4 21:30 22:1 23:2021
181 0:16 1:0.43 2:83 5:1 11:1 12:1128299 17:1 18:1 20:5 21:19 22:4 23:2020
550 0:42 1:0.3 2:80.00000000000001 5:1 11:1 12:1128299 17:1 20:36 21:24 22:11 23:2021
625 0:45 1:0.4 2:30 4:1 11:1 12:1185732 17:1 20:43 21:11 22:4 23:2021
300 0:47 1:0.3 2:60 6:1 11:1 12:1128299 17:1 20:46 21:16 22:6 23:2020
575 0:47 1:0.25 2:85.00000000000001 11:1 12:1128299 17:1 20:46 21:5 22:7 23:2020
400 0:45 1:0.35 2:20.00000000000001 3:1 11:1 12:1185732 17:1 20:43 21:11 22:11 23:2021
124 0:26 1:0.32 2:42 3:1 11:1 12:1128299 17:1 19:1 20:27 21:15 22:1 23:2020
98 0:45 1:0.5 2:25 7:1 11:1 12:1185732 17:1 18:1 20:43 21:12 22:5 23:2021
575 0:45 1:0.5 2:40 5:1 11:1 12:1185732 17:1 20:43 21:11 22:6 23:2021
218 0:46 1:0.51 2:60 7:1 11:1 12:1128299 17:1 18:1 20:4 21:2 22:1 23:2021
131 0:42 1:0.46 2:51 6:1 11:1 12:1128299 17:1 18:1 20:36 21:24 22:11 23:2021
525 0:16 1:0.5 2:60 4:1 11:1 12:1128299 17:1 20:5 21:8 22:4 23:2020
221 0:42 1:0.42 2:66 7:1 11:1 12:1128299 17:1 19:1 20:36 21:23 22:7 23:2021
350 0:45 1:0.35 2:10 7:1 11:1 12:1185732 17:1 20:43 21:12 22:9 23:2021
105 0:47 1:0.34 2:62 5:1 11:1 12:1128299 17:1 18:1 20:46 21:12 22:6 23:2020
128 0:42 1:0.4299999999999999 2:33 7:1 11:1 12:1128299 17:1 19:1 20:36 21:17 22:1 23:2021
300 0:45 1:0.35 2:20 7:1 11:1 12:1185732 17:1 20:43 21:11 22:10 23:2021
203 0:7 1:0.5 2:18 4:1 11:1 12:1197831 17:1 18:1 20:11 21:5 22:5 23:2021
550 0:47 1:0.25 2:80.00000000000001 7:1 11:1 12:1128299 17:1 20:46 21:2 22:8 23:2020
450 0:16 1:0.25 2:50 3:1 11:1 12:1128299 17:1 20:5 21:27 22:5 23:2020
157 0:42 1:0.47 2:54 11:1 12:1128299 17:1 19:1 20:36 21:23 22:12 23:2021
182 0:46 1:0.45 2:56 6:1 11:1 12:1128299 17:1 18:1 20:4 21:3 22:1 23:2021
350 0:45 1:0.35 2:30 3:1 11:1 12:1185732 17:1 20:43 21:10 22:3 23:2021
252 0:46 1:0.5 2:56 4:1 11:1 12:1128299 17:1 18:1 20:4 21:31 22:12 23:2020
600 0:16 1:0.25 2:70.00000000000001 3:1 11:1 12:1128299 17:1 20:5 21:3 22:5 23:2020
400 0:47 1:0.25 2:65 7:1 11:1 12:1128299 17:1 20:46 21:21 22:6 23:2020
670 0:45 1:0.4 2:35 4:1 11:1 12:1185732 17:1 20:43 21:12 22:5 23:2021
94 0:47 1:0.35 2:69 11:1 12:1128299 17:1 18:1 20:46 21:23 22:7 23:2020
775 0:16 1:0.45 2:65 4:1 11:1 12:1128299 17:1 20:5 21:20 22:4 23:2020
475 0:42 1:0.35 2:40 4:1 11:1 12:1128299 17:1 20:36 21:23 22:3 23:2021
88 0:47 1:0.39 2:71 3:1 11:1 12:1128299 17:1 18:1 20:46 21:14 22:6 23:2020
131 0:26 1:0.35 2:78 5:1 11:1 12:1128299 17:1 18:1 20:27 21:31 22:1 23:2020
189 0:46 1:0.33 2:72 5:1 11:1 12:1128299 17:1 18:1 20:4 21:5 22:1 23:2021
140 0:16 1:0.7300000000000001 2:74 11:1 12:1128299 17:1 18:1 20:5 21:30 22:4 23:2020
124 0:26 1:0.26 2:39 5:1 11:1 12:1128299 17:1 19:1 20:27 21:19 22:1 23:2020
400 0:45 1:0.5 2:44.99999999999999 5:1 11:1 12:1185732 17:1 20:43 21:12 22:5 23:2021
250 0:42 1:0.35 2:50 6:1 11:1 12:1128299 17:1 20:36 21:23 22:3 23:2021
145 0:26 1:0.45 2:47 6:1 11:1 12:1128299 17:1 19:1 20:27 21:4 22:2 23:2020
140 0:26 1:0.21 2:54 5:1 11:1 12:1128299 17:1 19:1 20:27 21:24 22:2 23:2020
88 0:47 1:0.32 2:78 5:1 11:1 12:1128299 17:1 18:1 20:46 21:18 22:6 23:2020
131 0:7 1:0.48 2:53 11:1 12:1197831 17:1 18:1 20:11 21:6 22:7 23:2021
203 0:45 1:0.5 2:33 4:1 11:1 12:1185732 17:1 18:1 20:43 21:11 22:8 23:2021
189 0:42 1:0.45 2:95 5:1 11:1 12:1128299 17:1 18:1 20:36 21:24 22:6 23:2021
525 0:16 1:0.35 2:30 4:1 11:1 12:1128299 17:1 20:5 21:21 22:3 23:2020
104 0:45 1:0.62 2:32 5:1 11:1 12:1185732 17:1 18:1 20:43 21:11 22:10 23:2021
550 0:26 1:0.3 2:65 3:1 11:1 12:1128299 17:1 19:1 20:27 21:2 22:2 23:2020
875 0:46 1:0.35 2:60 4:1 11:1 12:1128299 17:1 19:1 20:4 21:25 22:12 23:2020
132 0:26 1:0.47 2:49 7:1 11:1 12:1128299 17:1 19:1 20:27 21:28 22:1 23:2020
143 0:7 1:0.5900000000000001 2:48 6:1 11:1 12:1197831 17:1 18:1 20:11 21:4 22:6 23:2021
188 0:46 1:0.61 2:69 11:1 12:1128299 17:1 18:1 20:4 21:22 22:1 23:2021
60 0:26 1:0.7000000000000001 2:60 11:1 12:1128299 17:1 18:1 20:27 21:30 22:1 23:2020
750 0:46 1:0.4 2:65 7:1 11:1 12:1128299 17:1 19:1 20:4 21:2 22:1 23:2021
161 0:46 1:0.63 2:51 11:1 12:1128299 17:1 18:1 20:4 21:5 22:11 23:2020
195 0:47 1:0.38 2:77 3:1 11:1 12:1128299 17:1 18:1 20:46 21:1 22:8 23:2020
98 0:47 1:0.44 2:58 6:1 11:1 12:1128299 17:1 18:1 20:46 21:22 22:7 23:2020
248 0:46 1:0.39 2:51 7:1 11:1 12:1128299 17:1 19:1 20:4 21:20 22:1 23:2021
650 0:26 1:0.25 2:70 3:1 11:1 12:1128299 17:1 20:27 21:14 22:2 23:2020
93 0:42 1:0.45 2:40 11:1 12:1128299 17:1 19:1 20:36 21:24 22:10 23:2021
256 0:46 1:0.15 2:56 5:1 11:1 12:1128299 17:1 19:1 20:4 21:10 22:2 23:2021
500 0:16 1:0.4 2:65.00000000000001 7:1 11:1 12:1128299 17:1 20:5 21:22 22:5 23:2020
650 0:42 1:0.35 2:70 7:1 11:1 12:1128299 17:1 20:36 21:24 22:8 23:2021
160 0:47 1:0.44 2:68 4:1 11:1 12:1128299 17:1 18:1 20:46 21:13 22:6 23:2020
150 0:42 1:0.42 2:97 5:1 11:1 12:1128299 17:1 18:1 20:36 21:23 22:7 23:2021
700 0:46 1:0.25 2:55.00000000000001 6:1 11:1 12:1128299 17:1 19:1 20:4 21:8 22:2 23:2021
228 0:46 1:0.47 2:56 4:1 11:1 12:1128299 17:1 18:1 20:4 21:25 22:12 23:2020
124 0:26 1:0.47 2:64 6:1 11:1 12:1128299 17:1 18:1 20:27 21:16 22:2 23:2020
105 0:45 1:0.49 2:39 3:1 11:1 12:1128299 17:1 18:1 20:43 21:24 22:1 23:2021
39 0:16 1:0.6 2:56 11:1 12:1128299 17:1 18:1 20:5 21:31 22:3 23:2020
128 0:42 1:0.5 2:42 7:1 11:1 12:1128299 17:1 18:1 20:36 21:24 22:11 23:2021
400 0:45 1:0.35 2:20.00000000000001 7:1 11:1 12:1185732 17:1 20:43 21:10 22:3 23:2021
165 0:42 1:0.37 2:53 5:1 11:1 12:1128299 17:1 19:1 20:36 21:24 22:11 23:2021
375 0:47 1:0.2 2:75.00000000000001 5:1 11:1 12:1128299 17:1 20:46 21:24 22:7 23:2020
273 0:46 1:0.5 2:56 4:1 11:1 12:1128299 17:1 18:1 20:4 21:6 22:1 23:2021
100 0:45 1:0.64 2:29 5:1 11:1 12:1185732 17:1 18:1 20:43 21:10 22:3 23:2021
248 0:46 1:0.37 2:63 3:1 11:1 12:1128299 17:1 18:1 20:4 21:7 22:1 23:2021
140 0:45 1:0.39 2:16 7:1 11:1 12:1185732 17:1 19:1 20:43 21:10 22:3 23:2021
225 0:47 1:0.25 2:55.00000000000001 11:1 12:1128299 17:1 20:46 21:5 22:6 23:2020
325 0:16 1:0.35 2:55.00000000000001 6:1 11:1 12:1128299 17:1 20:5 21:11 22:5 23:2020
350 0:45 1:0.35 2:40 7:1 11:1 12:1128299 17:1 20:43 21:24 22:2 23:2021
108 0:26 1:0.34 2:78 5:1 11:1 12:1128299 17:1 18:1 20:27 21:18 22:2 23:2020
112 0:45 1:0.51 2:27 6:1 11:1 12:1185732 17:1 18:1 20:43 21:10 22:12 23:2021
105 0:45 1:0.39 2:31 7:1 11:1 12:1128299 17:1 19:1 20:43 21:24 22:1 23:2021
98 0:42 1:0.41 2:40 3:1 11:1 12:1128299 17:1 19:1 20:36 21:23 22:3 23:2021
123 0:26 1:0.27 2:54 5:1 11:1 12:1128299 17:1 19:1 20:27 21:25 22:1 23:2020
182 0:26 1:0.45 2:31 4:1 11:1 12:1128299 17:1 19:1 20:27 21:14 22:1 23:2020
200 0:42 1:0.45 2:50.00000000000001 11:1 12:1128299 17:1 20:36 21:17 22:1 23:2021
128 0:45 1:0.37 2:13 7:1 11:1 12:1185732 17:1 19:1 20:43 21:11 22:6 23:2021
215 0:7 1:0.39 2:21 3:1 11:1 12:1197831 17:1 19:1 20:11 21:5 22:4 23:2021
600 0:46 1:0.3 2:60 6:1 11:1 12:1128299 17:1 19:1 20:4 21:22 22:12 23:2020
174 0:46 1:0.43 2:58 6:1 11:1 12:1128299 17:1 18:1 20:4 21:22 22:12 23:2020
350 0:45 1:0.35 2:30 4:1 11:1 12:1128299 17:1 20:43 21:24 22:1 23:2021
98 0:42 1:0.35 2:28 5:1 11:1 12:1128299 17:1 19:1 20:36 21:24 22:2 23:2021
158 0:26 1:0.5 2:34 4:1 11:1 12:1128299 17:1 18:1 20:27 21:8 22:1 23:2020
169 0:45 1:0.52 2:29 4:1 11:1 12:1185732 17:1 18:1 20:43 21:12 22:9 23:2021
112 0:42 1:0.38 2:41 7:1 11:1 12:1128299 17:1 19:1 20:36 21:23 22:3 23:2021
85 0:45 1:0.39 2:20 11:1 12:1185732 17:1 19:1 20:43 21:11 22:10 23:2021
350 0:16 1:0.15 2:54.99999999999999 5:1 11:1 12:1128299 17:1 20:5 21:1 22:4 23:2020
174 0:45 1:0.51 2:32 4:1 11:1 12:1185732 17:1 18:1 20:43 21:12 22:5 23:2021
400 0:42 1:0.4 2:45 3:1 11:1 12:1128299 17:1 20:36 21:17 22:2 23:2021
70 0:26 1:0.65 2:47 11:1 12:1128299 17:1 18:1 20:27 21:6 22:1 23:2020
525 0:45 1:0.5 2:35 5:1 11:1 12:1185732 17:1 20:43 21:11 22:8 23:2021
123 0:45 1:0.4 2:29 3:1 11:1 12:1128299 17:1 19:1 20:43 21:24 22:1 23:2021
128 0:26 1:0.5300000000000001 2:53 11:1 12:1128299 17:1 19:1 20:27 21:23 22:2 23:2020
119 0:26 1:0.47 2:59 7:1 11:1 12:1128299 17:1 18:1 20:27 21:11 22:3 23:2020
200 0:42 1:0.35 2:50.00000000000001 6:1 11:1 12:1128299 17:1 20:36 21:25 22:9 23:2021
166 0:26 1:0.36 2:40 6:1 11:1 12:1128299 17:1 19:1 20:27 21:12 22:3 23:2020
400 0:42 1:0.4 2:35 4:1 11:1 12:1128299 17:1 20:36 21:17 22:1 23:2021
425 0:26 1:0.35 2:40 7:1 11:1 12:1128299 17:1 20:27 21:17 22:3 23:2020
179 0:26 1:0.42 2:44 7:1 11:1 12:1128299 17:1 19:1 20:27 21:15 22:2 23:2020
116 0:16 1:0.48 2:60 6:1 11:1 12:1128299 17:1 18:1 20:5 21:17 22:5 23:2020
182 0:16 1:0.38 2:64 3:1 11:1 12:1128299 17:1 18:1 20:5 21:21 22:5 23:2020
900 0:46 1:0.4 2:60 4:1 11:1 12:1128299 17:1 19:1 20:4 21:31 22:12 23:2020
135 0:16 1:0.35 2:46 7:1 11:1 12:1128299 17:1 18:1 20:5 21:28 22:5 23:2020
68 0:42 1:0.51 2:33 11:1 12:1128299 17:1 19:1 20:36 21:17 22:1 23:2021
273 0:46 1:0.27 2:58 3:1 11:1 12:1128299 17:1 18:1 20:4 21:12 22:2 23:2021
275 0:26 1:0.3 2:40 6:1 11:1 12:1128299 17:1 20:27 21:18 22:3 23:2020
133 0:26 1:0.44 2:57 6:1 11:1 12:1128299 17:1 18:1 20:27 21:12 22:3 23:2020
158 0:42 1:0.45 2:54 5:1 11:1 12:1128299 17:1 18:1 20:36 21:25 22:5 23:2021
124 0:47 1:0.37 2:54 7:1 11:1 12:1128299 17:1 18:1 20:46 21:27 22:7 23:2020
80 0:26 1:0.5700000000000001 2:37 11:1 12:1128299 17:1 19:1 20:27 21:6 22:1 23:2020
90 0:42 1:0.35 2:40 5:1 11:1 12:1128299 17:1 19:1 20:36 21:23 22:3 23:2021
174 0:47 1:0.35 2:71 3:1 11:1 12:1128299 17:1 18:1 20:46 21:14 22:7 23:2020
112 0:16 1:0.34 2:48 3:1 11:1 12:1128299 17:1 18:1 20:5 21:28 22:3 23:2020
200 0:26 1:0.55 2:50 11:1 12:1128299 17:1 19:1 20:27 21:12 22:1 23:2020
117 0:47 1:0.43 2:69 6:1 11:1 12:1128299 17:1 18:1 20:46 21:28 22:7 23:2020
239 0:47 1:0.4 2:73 4:1 11:1 12:1128299 17:1 18:1 20:46 21:1 22:7 23:2020
350 0:26 1:0.5000000000000001 2:70 11:1 12:1128299 17:1 20:27 21:7 22:3 23:2020
113 0:26 1:0.3 2:74 5:1 11:1 12:1128299 17:1 18:1 20:27 21:24 22:2 23:2020
650 0:42 1:0.35 2:50.00000000000001 3:1 11:1 12:1128299 17:1 20:36 21:24 22:11 23:2021
111 0:45 1:0.37 2:20 3:1 11:1 12:1185732 17:1 19:1 20:43 21:11 22:4 23:2021
170 0:26 1:0.27 2:61 5:1 11:1 12:1128299 17:1 19:1 20:27 21:12 22:2 23:2020
875 0:46 1:0.3 2:55.00000000000001 4:1 11:1 12:1128299 17:1 19:1 20:4 21:5 22:2 23:2021
203 0:45 1:0.55 2:39 4:1 11:1 12:1185732 17:1 18:1 20:43 21:10 22:12 23:2021
925 0:46 1:0.15 2:60.00000000000001 3:1 11:1 12:1128299 17:1 19:1 20:4 21:25 22:1 23:2021
52 0:26 1:0.7000000000000001 2:46 11:1 12:1128299 17:1 18:1 20:27 21:12 22:1 23:2020
105 0:45 1:0.4 2:22 3:1 11:1 12:1185732 17:1 19:1 20:43 21:10 22:3 23:2021
85 0:42 1:0.4 2:37 5:1 11:1 12:1128299 17:1 18:1 20:36 21:24 22:2 23:2021
375 0:45 1:0.4 2:20.00000000000001 6:1 11:1 12:1185732 17:1 20:43 21:11 22:11 23:2021
73 0:42 1:0.44 2:69 5:1 11:1 12:1128299 17:1 18:1 20:36 21:24 22:8 23:2021
195 0:7 1:0.48 2:29 3:1 11:1 12:1197831 17:1 18:1 20:11 21:5 22:4 23:2021
125 0:16 1:0.45 2:63 6:1 11:1 12:1128299 17:1 18:1 20:5 21:23 22:5 23:2020
74 0:26 1:0.46 2:44 6:1 11:1 12:1128299 17:1 18:1 20:27 21:11 22:1 23:2020
145 0:42 1:0.46 2:50 11:1 12:1128299 17:1 19:1 20:36 21:24 22:11 23:2021
149 0:26 1:0.4 2:20 4:1 11:1 12:1128299 17:1 19:1 20:27 21:15 22:3 23:2020
100 0:42 1:0.54 2:42 3:1 11:1 12:1128299 17:1 18:1 20:36 21:17 22:1 23:2021
231 0:42 1:0.33 2:74 5:1 11:1 12:1128299 17:1 19:1 20:36 21:24 22:6 23:2021
375 0:16 1:0.35 2:65 7:1 11:1 12:1128299 17:1 20:5 21:4 22:4 23:2020
119 0:42 1:0.39 2:29 4:1 11:1 12:1128299 17:1 19:1 20:36 21:24 22:10 23:2021
287 0:46 1:0.35 2:40 4:1 11:1 12:1128299 17:1 19:1 20:4 21:24 22:1 23:2021
600 0:45 1:0.5 2:40 5:1 11:1 12:1185732 17:1 20:43 21:10 22:7 23:2021
228 0:46 1:0.4700000000000001 2:51 11:1 12:1128299 17:1 19:1 20:4 21:9 22:2 23:2021
600 0:26 1:0.35 2:60.00000000000001 4:1 11:1 12:1128299 17:1 20:27 21:19 22:2 23:2020
300 0:26 1:0.35 2:54.99999999999999 6:1 11:1 12:1128299 17:1 19:1 20:27 21:17 22:1 23:2020
300 0:45 1:0.35 2:40 11:1 12:1185732 17:1 20:43 21:12 22:5 23:2021
475 0:42 1:0.35 2:55.00000000000001 4:1 11:1 12:1128299 17:1 20:36 21:24 22:4 23:2021
236 0:46 1:0.25 2:58 3:1 11:1 12:1128299 17:1 18:1 20:4 21:6 22:2 23:2021
600 0:7 1:0.35 2:50 7:1 11:1 12:1197831 17:1 18:1 20:11 21:4 22:6 23:2021
195 0:7 1:0.47 2:19 4:1 11:1 12:1197831 17:1 18:1 20:11 21:5 22:4 23:2021
575 0:47 1:0.3 2:75.00000000000001 6:1 11:1 12:1128299 17:1 20:46 21:10 22:7 23:2020
93 0:45 1:0.48 2:19 7:1 11:1 12:1185732 17:1 18:1 20:43 21:11 22:11 23:2021
575 0:26 1:0.35 2:60.00000000000001 4:1 11:1 12:1128299 17:1 20:27 21:3 22:3 23:2020
75 0:45 1:0.45 2:14 6:1 11:1 12:1185732 17:1 19:1 20:43 21:11 22:4 23:2021
275 0:16 1:0.3 2:60 6:1 11:1 12:1128299 17:1 20:5 21:5 22:4 23:2020
109 0:45 1:0.38 2:19 7:1 11:1 12:1185732 17:1 19:1 20:43 21:12 22:5 23:2021
132 0:26 1:0.35 2:43 6:1 11:1 12:1128299 17:1 19:1 20:27 21:6 22:3 23:2020
130 0:26 1:0.7000000000000001 2:60 11:1 12:1128299 17:1 18:1 20:27 21:11 22:2 23:2020
400 0:45 1:0.3 2:40 5:1 11:1 12:1128299 17:1 20:43 21:24 22:1 23:2021
425 0:47 1:0.25 2:60 3:1 11:1 12:1128299 17:1 20:46 21:8 22:6 23:2020
140 0:26 1:0.42 2:46 6:1 11:1 12:1128299 17:1 19:1 20:27 21:10 22:2 23:2020
112 0:42 1:0.54 2:43 7:1 11:1 12:1128299 17:1 18:1 20:36 21:17 22:1 23:2021
47 0:26 1:0.7000000000000001 2:55 11:1 12:1128299 17:1 18:1 20:27 21:18 22:1 23:2020
475 0:16 1:0.15 2:40 5:1 11:1 12:1128299 17:1 20:5 21:20 22:3 23:2020
83 0:42 1:0.48 2:49 6:1 11:1 12:1128299 17:1 18:1 20:36 21:25 22:5 23:2021
425 0:47 1:0.2 2:50 5:1 11:1 12:1128299 17:1 20:46 21:6 22:6 23:2020
400 0:26 1:0.5000000000000001 2:70 11:1 12:1128299 17:1 20:27 21:23 22:2 23:2020
70 0:45 1:0.53 2:18 6:1 11:1 12:1185732 17:1 18:1 20:43 21:11 22:4 23:2021
350 0:42 1:0.35 2:55.00000000000001 3:1 11:1 12:1128299 17:1 20:36 21:25 22:5 23:2021
325 0:45 1:0.35 2:20 11:1 12:1185732 17:1 20:43 21:12 22:9 23:2021
162 0:26 1:0.34 2:61 3:1 11:1 12:1128299 17:1 18:1 20:27 21:20 22:2 23:2020
117 0:26 1:0.49 2:55 6:1 11:1 12:1128299 17:1 18:1 20:27 21:10 22:2 23:2020
675 0:26 1:0.2 2:65.00000000000001 3:1 11:1 12:1128299 17:1 20:27 21:10 22:3 23:2020
179 0:42 1:0.38 2:37 3:1 11:1 12:1128299 17:1 19:1 20:36 21:24 22:10 23:2021
300 0:42 1:0.4 2:55.00000000000001 11:1 12:1128299 17:1 20:36 21:24 22:10 23:2021
114 0:42 1:0.41 2:47 7:1 11:1 12:1128299 17:1 19:1 20:36 21:24 22:4 23:2021
117 0:16 1:0.41 2:36 4:1 11:1 12:1128299 17:1 18:1 20:5 21:26 22:5 23:2020
200 0:45 1:0.35 2:40 6:1 11:1 12:1128299 17:1 20:43 21:24 22:1 23:2021
187 0:7 1:0.49 2:33 6:1 11:1 12:1197831 17:1 19:1 20:11 21:4 22:6 23:2021
700 0:26 1:0.4 2:65 4:1 11:1 12:1128299 17:1 20:27 21:13 22:2 23:2020
105 0:47 1:0.39 2:82 11:1 12:1128299 17:1 18:1 20:46 21:29 22:6 23:2020
250 0:42 1:0.35 2:50.00000000000001 7:1 11:1 12:1128299 17:1 20:36 21:25 22:9 23:2021
163 0:47 1:0.35 2:73 7:1 11:1 12:1128299 17:1 18:1 20:46 21:9 22:7 23:2020
109 0:45 1:0.39 2:23 11:1 12:1185732 17:1 19:1 20:43 21:11 22:8 23:2021
131 0:16 1:0.48 2:27 4:1 11:1 12:1128299 17:1 18:1 20:5 21:21 22:3 23:2020
116 0:26 1:0.5700000000000001 2:63 7:1 11:1 12:1128299 17:1 18:1 20:27 21:28 22:1 23:2020
165 0:16 1:0.48 2:37 4:1 11:1 12:1128299 17:1 18:1 20:5 21:27 22:3 23:2020
101 0:45 1:0.45 2:32 11:1 12:1185732 17:1 18:1 20:43 21:11 22:2 23:2021
58 0:42 1:0.5900000000000001 2:46 11:1 12:1128299 17:1 18:1 20:36 21:17 22:1 23:2021
125 0:42 1:0.4 2:45.00000000000001 11:1 12:1128299 17:1 20:36 21:24 22:2 23:2021
128 0:45 1:0.5700000000000001 2:32 5:1 11:1 12:1185732 17:1 19:1 20:43 21:12 22:5 23:2021
112 0:47 1:0.4 2:67 6:1 11:1 12:1128299 17:1 18:1 20:46 21:16 22:7 23:2020
425 0:47 1:0.25 2:90.00000000000001 11:1 12:1128299 17:1 20:46 21:29 22:7 23:2020
75 0:16 1:0.6600000000000001 2:64 11:1 12:1128299 17:1 18:1 20:5 21:12 22:5 23:2020
325 0:16 1:0.2 2:65 3:1 11:1 12:1128299 17:1 20:5 21:3 22:4 23:2020
375 0:16 1:0.5500000000000002 2:75.00000000000001 11:1 12:1128299 17:1 20:5 21:18 22:5 23:2020
350 0:45 1:0.35 2:25.00000000000001 7:1 11:1 12:1185732 17:1 20:43 21:12 22:5 23:2021
400 0:26 1:0.4 2:65 7:1 11:1 12:1128299 17:1 19:1 20:27 21:22 22:1 23:2020
104 0:26 1:0.43 2:60 3:1 11:1 12:1128299 17:1 18:1 20:27 21:27 22:1 23:2020
72 0:16 1:0.45 2:36 6:1 11:1 12:1128299 17:1 18:1 20:5 21:24 22:3 23:2020
116 0:7 1:0.49 2:20 6:1 11:1 12:1197831 17:1 19:1 20:11 21:5 22:4 23:2021
115 0:47 1:0.36 2:58 3:1 11:1 12:1128299 17:1 18:1 20:46 21:8 22:6 23:2020
91 0:45 1:0.5 2:9 7:1 11:1 12:1185732 17:1 18:1 20:43 21:12 22:9 23:2021
225 0:42 1:0.49 2:51 4:1 11:1 12:1128299 17:1 18:1 20:36 21:24 22:6 23:2021
108 0:47 1:0.38 2:60 3:1 11:1 12:1128299 17:1 18:1 20:46 21:20 22:6 23:2020
155 0:26 1:0.48 2:57 4:1 11:1 12:1128299 17:1 18:1 20:27 21:3 22:3 23:2020
182 0:46 1:0.5700000000000001 2:49 11:1 12:1128299 17:1 19:1 20:4 21:4 22:1 23:2021
