224 0:1 1:0.39 2:37 4:1 11:1 12:1128299 14:1 19:1 20:30 21:26 22:6 23:2021
88 0:41 1:0.43 2:52 11:1 12:1128299 14:1 18:1 20:2 21:22 22:12 23:2021
138 0:41 1:0.46 2:42 7:1 11:1 12:1128299 14:1 18:1 20:2 21:26 22:1 23:2021
163 0:12 1:0.37 2:50 5:1 11:1 12:1185732 14:1 18:1 20:49 21:12 22:6 23:2021
219 0:28 1:0.6200000000000001 2:43 11:1 12:1189833 14:1 19:1 20:4 21:29 22:5 23:2021
650 0:28 1:0.2 2:45 5:1 11:1 12:1189833 14:1 19:1 20:4 21:18 22:3 23:2021
500 0:12 1:0.35 2:40 6:1 11:1 12:1185732 14:1 20:49 21:12 22:6 23:2021
65 0:1 1:0.42 2:56 11:1 12:1128299 14:1 18:1 20:30 21:27 22:5 23:2021
500 0:12 1:0.3 2:50 11:1 12:1185732 14:1 20:49 21:10 22:9 23:2021
176 0:28 1:0.51 2:49 7:1 11:1 12:1189833 14:1 18:1 20:4 21:15 22:5 23:2021
135 0:41 1:0.37 2:58 5:1 11:1 12:1128299 14:1 18:1 20:2 21:22 22:12 23:2021
400 0:1 1:0.35 2:60.00000000000001 7:1 11:1 12:1128299 14:1 18:1 20:30 21:26 22:4 23:2021
140 0:1 1:0.39 2:72 5:1 11:1 12:1128299 14:1 18:1 20:30 21:26 22:11 23:2021
145 0:1 1:0.35 2:40 11:1 12:1128299 14:1 19:1 20:30 21:27 22:9 23:2021
550 0:1 1:0.35 2:60.00000000000001 4:1 11:1 12:1128299 14:1 18:1 20:30 21:26 22:11 23:2021
187 0:1 1:0.41 2:30 4:1 11:1 12:1128299 14:1 19:1 20:30 21:25 22:3 23:2021
136 0:41 1:0.47 2:36 3:1 11:1 12:1128299 14:1 19:1 20:2 21:26 22:2 23:2021
350 0:1 1:0.4 2:60.00000000000001 3:1 11:1 12:1128299 14:1 18:1 20:30 21:26 22:4 23:2021
475 0:41 1:0.4 2:45 3:1 11:1 12:1128299 14:1 18:1 20:2 21:26 22:1 23:2021
145 0:12 1:0.41 2:47 11:1 12:1185732 14:1 18:1 20:49 21:12 22:2 23:2021
98 0:1 1:0.5 2:59 3:1 11:1 12:1128299 14:1 18:1 20:30 21:26 22:4 23:2021
550 0:12 1:0.35 2:40 7:1 11:1 12:1185732 14:1 20:49 21:10 22:7 23:2021
128 0:1 1:0.4 2:37 6:1 11:1 12:1128299 14:1 19:1 20:30 21:26 22:6 23:2021
180 0:1 1:0.43 2:44 3:1 11:1 12:1128299 14:1 19:1 20:30 21:26 22:11 23:2021
109 0:1 1:0.46 2:43 3:1 11:1 12:1128299 14:1 19:1 20:30 21:26 22:4 23:2021
135 0:12 1:0.49 2:38 6:1 11:1 12:1185732 14:1 18:1 20:49 21:10 22:9 23:2021
203 0:28 1:0.55 2:48 7:1 11:1 12:1189833 14:1 18:1 20:4 21:21 22:4 23:2021
175 0:28 1:0.48 2:44 6:1 11:1 12:1189833 14:1 18:1 20:4 21:22 22:4 23:2021
400 0:1 1:0.35 2:55.00000000000001 7:1 11:1 12:1128299 14:1 18:1 20:30 21:25 22:3 23:2021
450 0:1 1:0.35 2:60.00000000000001 7:1 11:1 12:1128299 14:1 18:1 20:30 21:27 22:5 23:2021
165 0:12 1:0.37 2:37 5:1 11:1 12:1185732 14:1 18:1 20:49 21:10 22:3 23:2021
93 0:1 1:0.35 2:44 11:1 12:1128299 14:1 19:1 20:30 21:26 22:6 23:2021
850 0:12 1:0.5 2:50 4:1 11:1 12:1185732 14:1 20:49 21:11 22:8 23:2021
750 0:1 1:0.35 2:55.00000000000001 4:1 11:1 12:1128299 14:1 18:1 20:30 21:25 22:7 23:2021
206 0:28 1:0.22 2:43 5:1 11:1 12:1189833 14:1 19:1 20:4 21:18 22:4 23:2021
213 0:28 1:0.42 2:33 6:1 11:1 12:1189833 14:1 19:1 20:4 21:16 22:5 23:2021
203 0:1 1:0.48 2:52 4:1 11:1 12:1128299 14:1 18:1 20:30 21:26 22:6 23:2021
475 0:12 1:0.35 2:45.00000000000001 6:1 11:1 12:1185732 14:1 20:49 21:12 22:10 23:2021
550 0:1 1:0.35 2:60.00000000000001 7:1 11:1 12:1128299 14:1 18:1 20:30 21:26 22:6 23:2021
900 0:28 1:0.4 2:50 4:1 11:1 12:1189833 14:1 19:1 20:4 21:1 22:5 23:2021
119 0:12 1:0.46 2:41 6:1 11:1 12:1185732 14:1 18:1 20:49 21:12 22:10 23:2021
218 0:28 1:0.51 2:48 7:1 11:1 12:1189833 14:1 18:1 20:4 21:3 22:5 23:2021
600 0:28 1:0.55 2:60 11:1 12:1189833 14:1 19:1 20:4 21:17 22:5 23:2021
475 0:1 1:0.3 2:70 11:1 12:1128299 14:1 18:1 20:30 21:26 22:8 23:2021
109 0:41 1:0.34 2:42 11:1 12:1128299 14:1 19:1 20:2 21:22 22:12 23:2021
105 0:1 1:0.47 2:48 7:1 11:1 12:1128299 14:1 18:1 20:30 21:26 22:10 23:2021
775 0:12 1:0.5 2:55.00000000000001 4:1 11:1 12:1185732 14:1 20:49 21:12 22:10 23:2021
147 0:41 1:0.47 2:30 3:1 11:1 12:1128299 14:1 19:1 20:2 21:26 22:1 23:2021
119 0:12 1:0.47 2:33 6:1 11:1 12:1185732 14:1 18:1 20:49 21:11 22:4 23:2021
85 0:41 1:0.49 2:43 6:1 11:1 12:1128299 14:1 18:1 20:2 21:26 22:1 23:2021
135 0:1 1:0.45 2:54 6:1 11:1 12:1128299 14:1 18:1 20:30 21:25 22:7 23:2021
150 0:12 1:0.37 2:55 5:1 11:1 12:1185732 14:1 18:1 20:49 21:12 22:10 23:2021
425 0:1 1:0.25 2:75.00000000000001 5:1 11:1 12:1128299 14:1 18:1 20:30 21:27 22:5 23:2021
208 0:28 1:0.26 2:32 5:1 11:1 12:1189833 14:1 19:1 20:4 21:18 22:3 23:2021
700 0:1 1:0.35 2:60.00000000000001 4:1 11:1 12:1128299 14:1 18:1 20:30 21:26 22:8 23:2021
248 0:1 1:0.39 2:41 4:1 11:1 12:1128299 14:1 19:1 20:30 21:25 22:7 23:2021
106 0:1 1:0.45 2:54 6:1 11:1 12:1128299 14:1 18:1 20:30 21:26 22:6 23:2021
171 0:1 1:0.37 2:39 7:1 11:1 12:1128299 14:1 19:1 20:30 21:25 22:7 23:2021
150 0:1 1:0.54 2:59 3:1 11:1 12:1128299 14:1 18:1 20:30 21:26 22:11 23:2021
289 0:28 1:0.46 2:38 4:1 11:1 12:1189833 14:1 19:1 20:4 21:7 22:5 23:2021
221 0:28 1:0.42 2:33 6:1 11:1 12:1189833 14:1 19:1 20:4 21:22 22:5 23:2021
224 0:28 1:0.4 2:35 6:1 11:1 12:1189833 14:1 19:1 20:4 21:28 22:5 23:2021
169 0:28 1:0.35 2:47 3:1 11:1 12:1189833 14:1 18:1 20:4 21:14 22:4 23:2021
193 0:28 1:0.38 2:33 6:1 11:1 12:1189833 14:1 19:1 20:4 21:16 22:4 23:2021
133 0:12 1:0.42 2:45 11:1 12:1185732 14:1 18:1 20:49 21:10 22:5 23:2021
425 0:28 1:0.55 2:50 11:1 12:1189833 14:1 19:1 20:4 21:11 22:4 23:2021
238 0:1 1:0.42 2:44 4:1 11:1 12:1128299 14:1 19:1 20:30 21:25 22:12 23:2021
194 0:28 1:0.37 2:32 6:1 11:1 12:1189833 14:1 19:1 20:4 21:22 22:4 23:2021
98 0:1 1:0.38 2:50 5:1 11:1 12:1128299 14:1 18:1 20:30 21:25 22:3 23:2021
135 0:12 1:0.49 2:42 6:1 11:1 12:1185732 14:1 18:1 20:49 21:11 22:11 23:2021
300 0:1 1:0.35 2:55.00000000000001 6:1 11:1 12:1128299 14:1 18:1 20:30 21:26 22:4 23:2021
182 0:28 1:0.54 2:46 7:1 11:1 12:1189833 14:1 18:1 20:4 21:27 22:5 23:2021
174 0:12 1:0.39 2:38 5:1 11:1 12:1185732 14:1 18:1 20:49 21:12 22:2 23:2021
217 0:1 1:0.47 2:47 3:1 11:1 12:1128299 14:1 19:1 20:30 21:25 22:12 23:2021
297 0:28 1:0.44 2:36 4:1 11:1 12:1189833 14:1 19:1 20:4 21:19 22:4 23:2021
275 0:41 1:0.3 2:50.00000000000001 11:1 12:1128299 14:1 18:1 20:2 21:26 22:1 23:2021
126 0:12 1:0.45 2:47 11:1 12:1185732 14:1 18:1 20:49 21:10 22:3 23:2021
149 0:1 1:0.37 2:46 7:1 11:1 12:1128299 14:1 19:1 20:30 21:26 22:11 23:2021
550 0:28 1:0.35 2:45 6:1 11:1 12:1189833 14:1 19:1 20:4 21:16 22:4 23:2021
143 0:12 1:0.41 2:51 11:1 12:1185732 14:1 18:1 20:49 21:11 22:11 23:2021
111 0:1 1:0.51 2:58 3:1 11:1 12:1128299 14:1 18:1 20:30 21:27 22:5 23:2021
700 0:46 1:0.25 2:45 3:1 11:1 12:1189833 14:1 19:1 20:4 21:18 22:2 23:2021
117 0:1 1:0.48 2:54 7:1 11:1 12:1128299 14:1 18:1 20:30 21:26 22:11 23:2021
132 0:41 1:0.4 2:35 7:1 11:1 12:1128299 14:1 19:1 20:2 21:26 22:2 23:2021
800 0:12 1:0.5 2:55.00000000000001 4:1 11:1 12:1185732 14:1 20:49 21:10 22:12 23:2021
500 0:1 1:0.3 2:60.00000000000001 11:1 12:1128299 14:1 18:1 20:30 21:25 22:7 23:2021
111 0:1 1:0.4 2:54 11:1 12:1128299 14:1 18:1 20:30 21:27 22:9 23:2021
650 0:28 1:0.4 2:50 7:1 11:1 12:1189833 14:1 19:1 20:4 21:15 22:5 23:2021
143 0:12 1:0.45 2:38 7:1 11:1 12:1185732 14:1 18:1 20:49 21:11 22:8 23:2021
124 0:1 1:0.38 2:44 7:1 11:1 12:1128299 14:1 19:1 20:30 21:25 22:3 23:2021
162 0:1 1:0.36 2:74 5:1 11:1 12:1128299 14:1 18:1 20:30 21:26 22:6 23:2021
650 0:12 1:0.25 2:55.00000000000001 5:1 11:1 12:1185732 14:1 20:49 21:12 22:6 23:2021
550 0:12 1:0.35 2:40 7:1 11:1 12:1185732 14:1 20:49 21:11 22:8 23:2021
182 0:1 1:0.5 2:61 3:1 11:1 12:1128299 14:1 18:1 20:30 21:25 22:12 23:2021
500 0:12 1:0.35 2:40 6:1 11:1 12:1185732 14:1 20:49 21:10 22:7 23:2021
206 0:1 1:0.42 2:37 4:1 11:1 12:1128299 14:1 19:1 20:30 21:27 22:9 23:2021
475 0:12 1:0.3 2:55.00000000000001 11:1 12:1185732 14:1 20:49 21:11 22:11 23:2021
126 0:1 1:0.47 2:56 7:1 11:1 12:1128299 14:1 18:1 20:30 21:27 22:5 23:2021
600 0:12 1:0.3 2:45.00000000000001 3:1 11:1 12:1185732 14:1 20:49 21:10 22:9 23:2021
174 0:28 1:0.68 2:56 11:1 12:1189833 14:1 18:1 20:4 21:17 22:5 23:2021
147 0:1 1:0.42 2:39 7:1 11:1 12:1128299 14:1 19:1 20:30 21:27 22:9 23:2021
152 0:28 1:0.49 2:41 6:1 11:1 12:1189833 14:1 18:1 20:4 21:16 22:3 23:2021
168 0:12 1:0.41 2:42 3:1 11:1 12:1185732 14:1 18:1 20:49 21:12 22:6 23:2021
700 0:1 1:0.4 2:65.00000000000001 3:1 11:1 12:1128299 14:1 18:1 20:30 21:25 22:12 23:2021
700 0:1 1:0.35 2:60.00000000000001 4:1 11:1 12:1128299 14:1 18:1 20:30 21:25 22:12 23:2021
156 0:28 1:0.65 2:55 11:1 12:1189833 14:1 18:1 20:4 21:29 22:5 23:2021
83 0:1 1:0.46 2:50 6:1 11:1 12:1128299 14:1 18:1 20:30 21:25 22:3 23:2021
400 0:12 1:0.35 2:35 6:1 11:1 12:1185732 14:1 20:49 21:10 22:3 23:2021
193 0:1 1:0.4 2:41 7:1 11:1 12:1128299 14:1 19:1 20:30 21:26 22:6 23:2021
625 0:1 1:0.4 2:55.00000000000001 3:1 11:1 12:1128299 14:1 18:1 20:30 21:27 22:9 23:2021
154 0:28 1:0.45 2:41 6:1 11:1 12:1189833 14:1 18:1 20:4 21:22 22:3 23:2021
500 0:12 1:0.3 2:50 11:1 12:1185732 14:1 20:49 21:12 22:6 23:2021
525 0:1 1:0.35 2:60.00000000000001 7:1 11:1 12:1128299 14:1 18:1 20:30 21:26 22:8 23:2021
525 0:12 1:0.3 2:40 3:1 11:1 12:1185732 14:1 20:49 21:10 22:3 23:2021
189 0:46 1:0.52 2:41 7:1 11:1 12:1189833 14:1 18:1 20:4 21:9 22:3 23:2021
140 0:28 1:0.5700000000000001 2:40 11:1 12:1189833 14:1 19:1 20:4 21:17 22:3 23:2021
208 0:28 1:0.52 2:41 4:1 11:1 12:1189833 14:1 18:1 20:4 21:13 22:4 23:2021
550 0:46 1:0.35 2:45 6:1 11:1 12:1189833 14:1 19:1 20:4 21:10 22:3 23:2021
176 0:28 1:0.3 2:41 5:1 11:1 12:1189833 14:1 18:1 20:4 21:18 22:3 23:2021
198 0:28 1:0.27 2:49 5:1 11:1 12:1189833 14:1 19:1 20:4 21:12 22:4 23:2021
224 0:28 1:0.5 2:49 4:1 11:1 12:1189833 14:1 18:1 20:4 21:13 22:5 23:2021
213 0:28 1:0.54 2:47 4:1 11:1 12:1189833 14:1 18:1 20:4 21:7 22:5 23:2021
500 0:12 1:0.35 2:30 7:1 11:1 12:1185732 14:1 20:49 21:11 22:4 23:2021
425 0:12 1:0.35 2:35 6:1 11:1 12:1185732 14:1 20:49 21:11 22:4 23:2021
210 0:28 1:0.45 2:38 7:1 11:1 12:1189833 14:1 19:1 20:4 21:9 22:5 23:2021
192 0:1 1:0.28 2:50 5:1 11:1 12:1128299 14:1 19:1 20:30 21:26 22:6 23:2021
625 0:12 1:0.3 2:45.00000000000001 3:1 11:1 12:1185732 14:1 20:49 21:11 22:8 23:2021
700 0:28 1:0.2 2:65 5:1 11:1 12:1189833 14:1 19:1 20:4 21:24 22:5 23:2021
800 0:12 1:0.5 2:40 4:1 11:1 12:1185732 14:1 20:49 21:11 22:4 23:2021
135 0:41 1:0.28 2:43 5:1 11:1 12:1128299 14:1 19:1 20:2 21:22 22:12 23:2021
140 0:28 1:0.5900000000000001 2:38 11:1 12:1189833 14:1 19:1 20:4 21:17 22:4 23:2021
800 0:28 1:0.25 2:50 3:1 11:1 12:1189833 14:1 19:1 20:4 21:26 22:4 23:2021
54 0:1 1:0.44 2:45 11:1 12:1128299 14:1 18:1 20:30 21:26 22:2 23:2021
128 0:12 1:0.44 2:54 11:1 12:1185732 14:1 18:1 20:49 21:12 22:10 23:2021
137 0:12 1:0.46 2:38 7:1 11:1 12:1185732 14:1 18:1 20:49 21:10 22:9 23:2021
196 0:12 1:0.4 2:52 5:1 11:1 12:1185732 14:1 18:1 20:49 21:11 22:8 23:2021
425 0:12 1:0.35 2:35 6:1 11:1 12:1185732 14:1 20:49 21:12 22:2 23:2021
187 0:1 1:0.43 2:47 3:1 11:1 12:1128299 14:1 19:1 20:30 21:26 22:6 23:2021
700 0:28 1:0.55 2:50 11:1 12:1189833 14:1 19:1 20:4 21:29 22:4 23:2021
325 0:1 1:0.3 2:60.00000000000001 11:1 12:1128299 14:1 18:1 20:30 21:26 22:10 23:2021
53 0:1 1:0.32 2:41 11:1 12:1128299 14:1 19:1 20:30 21:25 22:3 23:2021
135 0:1 1:0.41 2:46 7:1 11:1 12:1128299 14:1 19:1 20:30 21:27 22:5 23:2021
210 0:28 1:0.22 2:49 5:1 11:1 12:1189833 14:1 19:1 20:4 21:12 22:5 23:2021
238 0:28 1:0.24 2:49 5:1 11:1 12:1189833 14:1 19:1 20:4 21:24 22:5 23:2021
625 0:1 1:0.35 2:50.00000000000001 4:1 11:1 12:1128299 14:1 18:1 20:30 21:27 22:9 23:2021
475 0:41 1:0.35 2:45 7:1 11:1 12:1128299 14:1 18:1 20:2 21:26 22:1 23:2021
87 0:1 1:0.43 2:56 11:1 12:1128299 14:1 18:1 20:30 21:26 22:6 23:2021
820 0:12 1:0.5 2:40 4:1 11:1 12:1185732 14:1 20:49 21:10 22:3 23:2021
150 0:12 1:0.47 2:39 6:1 11:1 12:1185732 14:1 18:1 20:49 21:10 22:7 23:2021
80 0:41 1:0.41 2:45 11:1 12:1128299 14:1 18:1 20:2 21:26 22:1 23:2021
115 0:1 1:0.47 2:55 6:1 11:1 12:1128299 14:1 18:1 20:30 21:26 22:11 23:2021
225 0:28 1:0.3 2:35 3:1 11:1 12:1189833 14:1 19:1 20:4 21:20 22:4 23:2021
750 0:28 1:0.4 2:50 7:1 11:1 12:1189833 14:1 19:1 20:4 21:27 22:4 23:2021
96 0:1 1:0.39 2:37 6:1 11:1 12:1128299 14:1 19:1 20:30 21:26 22:4 23:2021
165 0:1 1:0.5 2:44 4:1 11:1 12:1128299 14:1 18:1 20:30 21:25 22:3 23:2021
176 0:28 1:0.39 2:36 6:1 11:1 12:1189833 14:1 19:1 20:4 21:22 22:3 23:2021
176 0:1 1:0.52 2:60 3:1 11:1 12:1128299 14:1 18:1 20:30 21:26 22:8 23:2021
169 0:28 1:0.5 2:44 7:1 11:1 12:1189833 14:1 18:1 20:4 21:15 22:3 23:2021
210 0:28 1:0.23 2:29 5:1 11:1 12:1189833 14:1 19:1 20:4 21:12 22:3 23:2021
149 0:1 1:0.42 2:39 6:1 11:1 12:1128299 14:1 19:1 20:30 21:25 22:7 23:2021
750 0:28 1:0.4 2:35 4:1 11:1 12:1189833 14:1 19:1 20:4 21:13 22:3 23:2021
173 0:41 1:0.4 2:27 4:1 11:1 12:1128299 14:1 19:1 20:2 21:26 22:2 23:2021
169 0:28 1:0.5 2:47 7:1 11:1 12:1189833 14:1 18:1 20:4 21:21 22:5 23:2021
425 0:28 1:0.55 2:50 11:1 12:1189833 14:1 19:1 20:4 21:23 22:3 23:2021
675 0:28 1:0.35 2:50 6:1 11:1 12:1189833 14:1 19:1 20:4 21:4 22:5 23:2021
450 0:12 1:0.35 2:40 6:1 11:1 12:1185732 14:1 20:49 21:10 22:5 23:2021
175 0:1 1:0.5 2:56 4:1 11:1 12:1128299 14:1 18:1 20:30 21:26 22:8 23:2021
175 0:1 1:0.3 2:60.00000000000001 11:1 12:1128299 14:1 18:1 20:30 21:25 22:3 23:2021
196 0:28 1:0.35 2:59 5:1 11:1 12:1189833 14:1 18:1 20:4 21:30 22:5 23:2021
825 0:28 1:0.25 2:55.00000000000001 3:1 11:1 12:1189833 14:1 19:1 20:4 21:20 22:5 23:2021
154 0:28 1:0.48 2:41 6:1 11:1 12:1189833 14:1 18:1 20:4 21:16 22:4 23:2021
147 0:41 1:0.49 2:33 4:1 11:1 12:1128299 14:1 18:1 20:2 21:26 22:2 23:2021
725 0:28 1:0.4 2:50 7:1 11:1 12:1189833 14:1 19:1 20:4 21:3 22:5 23:2021
252 0:28 1:0.52 2:47 4:1 11:1 12:1189833 14:1 18:1 20:4 21:1 22:5 23:2021
675 0:12 1:0.25 2:55.00000000000001 5:1 11:1 12:1185732 14:1 20:49 21:11 22:8 23:2021
800 0:28 1:0.25 2:55.00000000000001 3:1 11:1 12:1189833 14:1 19:1 20:4 21:14 22:5 23:2021
264 0:28 1:0.22 2:48 5:1 11:1 12:1189833 14:1 19:1 20:4 21:24 22:4 23:2021
145 0:12 1:0.46 2:28 7:1 11:1 12:1185732 14:1 18:1 20:49 21:11 22:4 23:2021
600 0:1 1:0.25 2:75.00000000000001 5:1 11:1 12:1128299 14:1 18:1 20:30 21:26 22:6 23:2021
850 0:28 1:0.4 2:50 4:1 11:1 12:1189833 14:1 19:1 20:4 21:7 22:5 23:2021
140 0:1 1:0.28 2:35 5:1 11:1 12:1128299 14:1 19:1 20:30 21:26 22:2 23:2021
174 0:12 1:0.4 2:52 5:1 11:1 12:1185732 14:1 18:1 20:49 21:10 22:9 23:2021
675 0:28 1:0.55 2:60 11:1 12:1189833 14:1 19:1 20:4 21:5 22:5 23:2021
225 0:28 1:0.53 2:34 4:1 11:1 12:1189833 14:1 18:1 20:4 21:13 22:3 23:2021
210 0:1 1:0.43 2:45 3:1 11:1 12:1128299 14:1 19:1 20:30 21:25 22:7 23:2021
525 0:28 1:0.35 2:45 6:1 11:1 12:1189833 14:1 19:1 20:4 21:16 22:3 23:2021
500 0:12 1:0.3 2:50 11:1 12:1185732 14:1 20:49 21:12 22:2 23:2021
145 0:1 1:0.41 2:37 6:1 11:1 12:1128299 14:1 19:1 20:30 21:27 22:9 23:2021
181 0:28 1:0.31 2:64 5:1 11:1 12:1189833 14:1 18:1 20:4 21:18 22:4 23:2021
550 0:28 1:0.35 2:45 6:1 11:1 12:1189833 14:1 19:1 20:4 21:22 22:3 23:2021
225 0:28 1:0.35 2:47 3:1 11:1 12:1189833 14:1 18:1 20:4 21:20 22:4 23:2021
194 0:28 1:0.23 2:33 5:1 11:1 12:1189833 14:1 19:1 20:4 21:6 22:4 23:2021
600 0:12 1:0.25 2:55.00000000000001 5:1 11:1 12:1185732 14:1 20:49 21:10 22:5 23:2021
149 0:28 1:0.6100000000000001 2:38 11:1 12:1189833 14:1 19:1 20:4 21:11 22:4 23:2021
155 0:28 1:0.5900000000000001 2:36 11:1 12:1189833 14:1 19:1 20:4 21:11 22:3 23:2021
900 0:28 1:0.25 2:55.00000000000001 3:1 11:1 12:1189833 14:1 19:1 20:4 21:26 22:5 23:2021
189 0:28 1:0.34 2:59 5:1 11:1 12:1189833 14:1 18:1 20:4 21:24 22:5 23:2021
650 0:28 1:0.4 2:50 7:1 11:1 12:1189833 14:1 19:1 20:4 21:15 22:4 23:2021
160 0:46 1:0.49 2:41 6:1 11:1 12:1189833 14:1 18:1 20:4 21:10 22:3 23:2021
174 0:28 1:0.6900000000000001 2:55 11:1 12:1189833 14:1 18:1 20:4 21:23 22:5 23:2021
200 0:1 1:0.3 2:60.00000000000001 11:1 12:1128299 14:1 18:1 20:30 21:26 22:4 23:2021
216 0:28 1:0.5 2:32 4:1 11:1 12:1189833 14:1 18:1 20:4 21:19 22:3 23:2021
224 0:1 1:0.37 2:40 4:1 11:1 12:1128299 14:1 19:1 20:30 21:26 22:8 23:2021
850 0:28 1:0.25 2:55.00000000000001 3:1 11:1 12:1189833 14:1 19:1 20:4 21:8 22:5 23:2021
550 0:12 1:0.25 2:40 5:1 11:1 12:1185732 14:1 20:49 21:10 22:3 23:2021
221 0:28 1:0.4 2:51 3:1 11:1 12:1189833 14:1 18:1 20:4 21:2 22:5 23:2021
53 0:1 1:0.43 2:55 11:1 12:1128299 14:1 18:1 20:30 21:25 22:3 23:2021
136 0:1 1:0.41 2:40 6:1 11:1 12:1128299 14:1 19:1 20:30 21:26 22:11 23:2021
425 0:41 1:0.35 2:45 7:1 11:1 12:1128299 14:1 18:1 20:2 21:26 22:2 23:2021
600 0:12 1:0.25 2:40 5:1 11:1 12:1185732 14:1 20:49 21:12 22:2 23:2021
143 0:1 1:0.47 2:55 6:1 11:1 12:1128299 14:1 18:1 20:30 21:26 22:8 23:2021
115 0:1 1:0.39 2:69 5:1 11:1 12:1128299 14:1 18:1 20:30 21:27 22:5 23:2021
166 0:41 1:0.27 2:36 5:1 11:1 12:1128299 14:1 19:1 20:2 21:26 22:1 23:2021
162 0:1 1:0.34 2:48 11:1 12:1128299 14:1 19:1 20:30 21:26 22:8 23:2021
140 0:1 1:0.38 2:69 5:1 11:1 12:1128299 14:1 18:1 20:30 21:25 22:7 23:2021
140 0:12 1:0.41 2:47 11:1 12:1185732 14:1 18:1 20:49 21:11 22:8 23:2021
171 0:1 1:0.37 2:35 4:1 11:1 12:1128299 14:1 19:1 20:30 21:26 22:10 23:2021
600 0:12 1:0.3 2:45.00000000000001 3:1 11:1 12:1185732 14:1 20:49 21:10 22:12 23:2021
210 0:1 1:0.46 2:55 4:1 11:1 12:1128299 14:1 18:1 20:30 21:25 22:12 23:2021
285 0:28 1:0.47 2:30 4:1 11:1 12:1189833 14:1 19:1 20:4 21:25 22:4 23:2021
450 0:1 1:0.35 2:60.00000000000001 7:1 11:1 12:1128299 14:1 18:1 20:30 21:26 22:11 23:2021
450 0:1 1:0.35 2:55.00000000000001 6:1 11:1 12:1128299 14:1 18:1 20:30 21:25 22:7 23:2021
228 0:12 1:0.64 2:48 4:1 11:1 12:1185732 14:1 18:1 20:49 21:10 22:7 23:2021
600 0:12 1:0.25 2:55.00000000000001 5:1 11:1 12:1185732 14:1 20:49 21:10 22:9 23:2021
306 0:28 1:0.45 2:36 4:1 11:1 12:1189833 14:1 19:1 20:4 21:1 22:5 23:2021
500 0:12 1:0.3 2:40 3:1 11:1 12:1185732 14:1 20:49 21:11 22:4 23:2021
91 0:1 1:0.37 2:29 6:1 11:1 12:1128299 14:1 19:1 20:30 21:26 22:2 23:2021
625 0:12 1:0.3 2:45.00000000000001 3:1 11:1 12:1185732 14:1 20:49 21:10 22:7 23:2021
500 0:28 1:0.55 2:50 11:1 12:1189833 14:1 19:1 20:4 21:23 22:4 23:2021
425 0:41 1:0.35 2:45.00000000000001 7:1 11:1 12:1128299 14:1 18:1 20:2 21:22 22:12 23:2021
136 0:41 1:0.41 2:35 7:1 11:1 12:1128299 14:1 19:1 20:2 21:22 22:12 23:2021
221 0:28 1:0.46 2:33 7:1 11:1 12:1189833 14:1 19:1 20:4 21:21 22:3 23:2021
700 0:28 1:0.35 2:50 6:1 11:1 12:1189833 14:1 19:1 20:4 21:28 22:5 23:2021
203 0:1 1:0.47 2:54 4:1 11:1 12:1128299 14:1 18:1 20:30 21:25 22:7 23:2021
101 0:1 1:0.38 2:69 5:1 11:1 12:1128299 14:1 18:1 20:30 21:26 22:4 23:2021
169 0:28 1:0.55 2:42 7:1 11:1 12:1189833 14:1 18:1 20:4 21:21 22:3 23:2021
820 0:12 1:0.5 2:50 4:1 11:1 12:1185732 14:1 20:49 21:10 22:5 23:2021
240 0:28 1:0.5 2:43 4:1 11:1 12:1189833 14:1 18:1 20:4 21:7 22:4 23:2021
189 0:28 1:0.35 2:61 5:1 11:1 12:1189833 14:1 18:1 20:4 21:6 22:5 23:2021
450 0:41 1:0.25 2:60.00000000000001 5:1 11:1 12:1128299 14:1 18:1 20:2 21:22 22:12 23:2021
168 0:12 1:0.41 2:44 3:1 11:1 12:1185732 14:1 18:1 20:49 21:10 22:12 23:2021
203 0:28 1:0.3 2:59 5:1 11:1 12:1189833 14:1 18:1 20:4 21:30 22:4 23:2021
700 0:28 1:0.4 2:50 7:1 11:1 12:1189833 14:1 19:1 20:4 21:27 22:5 23:2021
300 0:1 1:0.3 2:60.00000000000001 11:1 12:1128299 14:1 18:1 20:30 21:26 22:6 23:2021
625 0:28 1:0.55 2:60 11:1 12:1189833 14:1 19:1 20:4 21:29 22:5 23:2021
228 0:28 1:0.4 2:29 6:1 11:1 12:1189833 14:1 19:1 20:4 21:28 22:4 23:2021
179 0:28 1:0.41 2:34 6:1 11:1 12:1189833 14:1 19:1 20:4 21:16 22:3 23:2021
109 0:1 1:0.41 2:43 6:1 11:1 12:1128299 14:1 19:1 20:30 21:27 22:5 23:2021
123 0:1 1:0.47 2:49 6:1 11:1 12:1128299 14:1 18:1 20:30 21:27 22:9 23:2021
600 0:1 1:0.4 2:60.00000000000001 3:1 11:1 12:1128299 14:1 18:1 20:30 21:25 22:7 23:2021
375 0:1 1:0.35 2:50.00000000000001 7:1 11:1 12:1128299 14:1 18:1 20:30 21:26 22:10 23:2021
125 0:12 1:0.43 2:48 11:1 12:1185732 14:1 18:1 20:49 21:10 22:9 23:2021
475 0:12 1:0.3 2:50 11:1 12:1185732 14:1 20:49 21:10 22:5 23:2021
136 0:1 1:0.45 2:36 3:1 11:1 12:1128299 14:1 19:1 20:30 21:25 22:3 23:2021
95 0:1 1:0.49 2:46 6:1 11:1 12:1128299 14:1 18:1 20:30 21:26 22:10 23:2021
600 0:1 1:0.4 2:65.00000000000001 3:1 11:1 12:1128299 14:1 18:1 20:30 21:26 22:11 23:2021
160 0:1 1:0.32 2:49 5:1 11:1 12:1128299 14:1 19:1 20:30 21:25 22:7 23:2021
152 0:1 1:0.37 2:46 6:1 11:1 12:1128299 14:1 19:1 20:30 21:26 22:8 23:2021
650 0:1 1:0.4 2:65.00000000000001 3:1 11:1 12:1128299 14:1 18:1 20:30 21:26 22:8 23:2021
650 0:28 1:0.25 2:50 3:1 11:1 12:1189833 14:1 19:1 20:4 21:14 22:4 23:2021
224 0:46 1:0.43 2:26 4:1 11:1 12:1189833 14:1 19:1 20:4 21:17 22:2 23:2021
248 0:28 1:0.46 2:31 4:1 11:1 12:1189833 14:1 19:1 20:4 21:7 22:4 23:2021
400 0:1 1:0.25 2:45 5:1 11:1 12:1128299 14:1 18:1 20:30 21:26 22:2 23:2021
195 0:28 1:0.4 2:43 3:1 11:1 12:1189833 14:1 18:1 20:4 21:14 22:3 23:2021
204 0:28 1:0.5700000000000001 2:46 11:1 12:1189833 14:1 19:1 20:4 21:23 22:5 23:2021
275 0:1 1:0.35 2:45 6:1 11:1 12:1128299 14:1 18:1 20:30 21:26 22:2 23:2021
600 0:12 1:0.3 2:45.00000000000001 3:1 11:1 12:1185732 14:1 20:49 21:12 22:6 23:2021
575 0:12 1:0.25 2:60 5:1 11:1 12:1185732 14:1 20:49 21:11 22:11 23:2021
120 0:1 1:0.4 2:34 7:1 11:1 12:1128299 14:1 19:1 20:30 21:26 22:10 23:2021
375 0:1 1:0.25 2:75.00000000000001 5:1 11:1 12:1128299 14:1 18:1 20:30 21:26 22:10 23:2021
600 0:12 1:0.25 2:60 5:1 11:1 12:1185732 14:1 20:49 21:12 22:10 23:2021
206 0:28 1:0.47 2:38 7:1 11:1 12:1189833 14:1 19:1 20:4 21:9 22:4 23:2021
525 0:41 1:0.35 2:34.99999999999999 4:1 11:1 12:1128299 14:1 18:1 20:2 21:26 22:2 23:2021
272 0:28 1:0.46 2:40 4:1 11:1 12:1189833 14:1 19:1 20:4 21:19 22:5 23:2021
106 0:12 1:0.42 2:47 11:1 12:1185732 14:1 18:1 20:49 21:11 22:4 23:2021
112 0:1 1:0.42 2:35 6:1 11:1 12:1128299 14:1 19:1 20:30 21:26 22:10 23:2021
169 0:28 1:0.48 2:47 6:1 11:1 12:1189833 14:1 18:1 20:4 21:4 22:5 23:2021
375 0:1 1:0.25 2:55.00000000000001 5:1 11:1 12:1128299 14:1 18:1 20:30 21:25 22:3 23:2021
650 0:28 1:0.2 2:65 5:1 11:1 12:1189833 14:1 19:1 20:4 21:18 22:5 23:2021
264 0:28 1:0.3 2:43 3:1 11:1 12:1189833 14:1 19:1 20:4 21:14 22:5 23:2021
243 0:28 1:0.38 2:50 3:1 11:1 12:1189833 14:1 18:1 20:4 21:26 22:5 23:2021
250 0:1 1:0.3 2:60.00000000000001 11:1 12:1128299 14:1 18:1 20:30 21:27 22:5 23:2021
233 0:28 1:0.42 2:35 7:1 11:1 12:1189833 14:1 19:1 20:4 21:21 22:4 23:2021
131 0:1 1:0.31 2:57 5:1 11:1 12:1128299 14:1 19:1 20:30 21:26 22:10 23:2021
800 0:28 1:0.4 2:45 4:1 11:1 12:1189833 14:1 19:1 20:4 21:7 22:4 23:2021
800 0:28 1:0.2 2:65 5:1 11:1 12:1189833 14:1 19:1 20:4 21:24 22:4 23:2021
223 0:28 1:0.46 2:35 7:1 11:1 12:1189833 14:1 19:1 20:4 21:21 22:5 23:2021
161 0:12 1:0.39 2:55 5:1 11:1 12:1185732 14:1 18:1 20:49 21:11 22:11 23:2021
175 0:28 1:0.45 2:48 6:1 11:1 12:1189833 14:1 18:1 20:4 21:16 22:5 23:2021
950 0:28 1:0.4 2:45 4:1 11:1 12:1189833 14:1 19:1 20:4 21:25 22:4 23:2021
188 0:1 1:0.46 2:39 3:1 11:1 12:1128299 14:1 19:1 20:30 21:27 22:9 23:2021
116 0:1 1:0.28 2:56 5:1 11:1 12:1128299 14:1 19:1 20:30 21:26 22:4 23:2021
131 0:1 1:0.31 2:44 5:1 11:1 12:1128299 14:1 19:1 20:30 21:25 22:3 23:2021
500 0:12 1:0.35 2:40 6:1 11:1 12:1185732 14:1 20:49 21:10 22:9 23:2021
675 0:28 1:0.4 2:50 7:1 11:1 12:1189833 14:1 19:1 20:4 21:21 22:5 23:2021
112 0:12 1:0.47 2:33 6:1 11:1 12:1185732 14:1 18:1 20:49 21:10 22:3 23:2021
264 0:28 1:0.31 2:41 3:1 11:1 12:1189833 14:1 19:1 20:4 21:2 22:5 23:2021
145 0:12 1:0.49 2:39 7:1 11:1 12:1185732 14:1 18:1 20:49 21:10 22:5 23:2021
675 0:28 1:0.4 2:45 7:1 11:1 12:1189833 14:1 19:1 20:4 21:15 22:3 23:2021
157 0:41 1:0.39 2:32 7:1 11:1 12:1128299 14:1 19:1 20:2 21:26 22:1 23:2021
700 0:28 1:0.2 2:65 5:1 11:1 12:1189833 14:1 19:1 20:4 21:30 22:4 23:2021
270 0:28 1:0.55 2:44 4:1 11:1 12:1189833 14:1 18:1 20:4 21:19 22:4 23:2021
147 0:12 1:0.49 2:38 6:1 11:1 12:1185732 14:1 18:1 20:49 21:11 22:8 23:2021
128 0:41 1:0.41 2:32 6:1 11:1 12:1128299 14:1 19:1 20:2 21:22 22:12 23:2021
550 0:12 1:0.35 2:30 7:1 11:1 12:1185732 14:1 20:49 21:10 22:3 23:2021
700 0:28 1:0.2 2:45 5:1 11:1 12:1189833 14:1 19:1 20:4 21:12 22:3 23:2021
700 0:46 1:0.4 2:45 7:1 11:1 12:1189833 14:1 19:1 20:4 21:9 22:3 23:2021
200 0:28 1:0.31 2:60 5:1 11:1 12:1189833 14:1 18:1 20:4 21:24 22:4 23:2021
160 0:1 1:0.48 2:58 7:1 11:1 12:1128299 14:1 18:1 20:30 21:25 22:7 23:2021
825 0:28 1:0.4 2:50 4:1 11:1 12:1189833 14:1 19:1 20:4 21:19 22:5 23:2021
550 0:1 1:0.4 2:55.00000000000001 3:1 11:1 12:1128299 14:1 18:1 20:30 21:26 22:10 23:2021
165 0:28 1:0.6000000000000001 2:39 11:1 12:1189833 14:1 19:1 20:4 21:23 22:4 23:2021
131 0:12 1:0.45 2:38 7:1 11:1 12:1185732 14:1 18:1 20:49 21:12 22:6 23:2021
149 0:12 1:0.45 2:27 7:1 11:1 12:1185732 14:1 18:1 20:49 21:10 22:3 23:2021
128 0:41 1:0.36 2:42 5:1 11:1 12:1128299 14:1 18:1 20:2 21:26 22:1 23:2021
350 0:41 1:0.3 2:55.00000000000001 11:1 12:1128299 14:1 18:1 20:2 21:22 22:12 23:2021
146 0:12 1:0.5 2:42 7:1 11:1 12:1185732 14:1 18:1 20:49 21:11 22:11 23:2021
800 0:28 1:0.4 2:35 4:1 11:1 12:1189833 14:1 19:1 20:4 21:19 22:3 23:2021
74 0:1 1:0.49 2:43 6:1 11:1 12:1128299 14:1 18:1 20:30 21:26 22:2 23:2021
425 0:1 1:0.3 2:60.00000000000001 11:1 12:1128299 14:1 18:1 20:30 21:27 22:9 23:2021
87 0:1 1:0.46 2:54 6:1 11:1 12:1128299 14:1 18:1 20:30 21:26 22:4 23:2021
550 0:1 1:0.35 2:60.00000000000001 7:1 11:1 12:1128299 14:1 18:1 20:30 21:25 22:7 23:2021
750 0:28 1:0.4 2:50 7:1 11:1 12:1189833 14:1 19:1 20:4 21:21 22:4 23:2021
149 0:1 1:0.5 2:54 7:1 11:1 12:1128299 14:1 18:1 20:30 21:26 22:6 23:2021
163 0:28 1:0.52 2:45 7:1 11:1 12:1189833 14:1 18:1 20:4 21:15 22:4 23:2021
