75 0:37 1:0.49 2:14 7:1 9:1 12:1197831 14:1 18:1 20:35 21:14 22:2 23:2021
102 0:37 1:0.5 2:23 5:1 9:1 12:1197831 14:1 18:1 20:35 21:16 22:1 23:2021
114 0:37 1:0.45 2:45 6:1 9:1 12:1197831 14:1 19:1 20:35 21:19 22:12 23:2021
98 0:37 1:0.4 2:55 9:1 12:1197831 14:1 19:1 20:35 21:19 22:12 23:2021
81 0:37 1:0.43 2:19 7:1 9:1 12:1197831 14:1 19:1 20:35 21:20 22:11 23:2021
90 0:37 1:0.47 2:37 6:1 9:1 12:1197831 14:1 19:1 20:35 21:20 22:11 23:2021
65 0:37 1:0.5 2:23 3:1 9:1 12:1197831 14:1 18:1 20:35 21:14 22:2 23:2021
625 0:37 1:0.4 2:70 4:1 9:1 12:1197831 14:1 18:1 20:35 21:19 22:12 23:2021
325 0:37 1:0.4 2:30 5:1 9:1 12:1197831 14:1 18:1 20:35 21:21 22:10 23:2021
74 0:37 1:0.54 2:23 7:1 9:1 12:1197831 14:1 18:1 20:35 21:20 22:11 23:2021
250 0:37 1:0.35 2:25.00000000000001 3:1 9:1 12:1197831 14:1 18:1 20:35 21:14 22:2 23:2021
200 0:37 1:0.35 2:20 6:1 9:1 12:1197831 14:1 18:1 20:35 21:16 22:1 23:2021
325 0:37 1:0.35 2:70 9:1 12:1197831 14:1 18:1 20:35 21:19 22:12 23:2021
91 0:37 1:0.49 2:23 3:1 9:1 12:1197831 14:1 18:1 20:35 21:16 22:1 23:2021
123 0:37 1:0.5 2:68 5:1 9:1 12:1197831 14:1 18:1 20:35 21:19 22:12 23:2021
77 0:37 1:0.49 2:71 9:1 12:1197831 14:1 18:1 20:35 21:20 22:11 23:2021
162 0:37 1:0.47 2:23 4:1 9:1 12:1197831 14:1 18:1 20:35 21:14 22:2 23:2021
105 0:37 1:0.5 2:72 5:1 9:1 12:1197831 14:1 18:1 20:35 21:20 22:11 23:2021
350 0:37 1:0.35 2:25.00000000000001 3:1 9:1 12:1197831 14:1 18:1 20:35 21:16 22:1 23:2021
65 0:37 1:0.48 2:33 9:1 12:1197831 14:1 18:1 20:35 21:16 22:1 23:2021
75 0:37 1:0.41 2:17 3:1 9:1 12:1197831 14:1 19:1 20:35 21:14 22:2 23:2021
70 0:37 1:0.4 2:16 6:1 9:1 12:1197831 14:1 19:1 20:35 21:16 22:1 23:2021
96 0:37 1:0.38 2:11 3:1 9:1 12:1197831 14:1 19:1 20:35 21:20 22:11 23:2021
101 0:37 1:0.47 2:22 5:1 9:1 12:1197831 14:1 19:1 20:35 21:21 22:10 23:2021
119 0:37 1:0.45 2:58 3:1 9:1 12:1197831 14:1 18:1 20:35 21:19 22:12 23:2021
75 0:37 1:0.53 2:52 6:1 9:1 12:1197831 14:1 18:1 20:35 21:20 22:11 23:2021
350 0:37 1:0.35 2:25.00000000000001 5:1 9:1 12:1197831 14:1 18:1 20:35 21:16 22:1 23:2021
166 0:37 1:0.44 2:16 4:1 9:1 12:1197831 14:1 19:1 20:35 21:20 22:11 23:2021
78 0:37 1:0.47 2:14 3:1 9:1 12:1197831 14:1 18:1 20:35 21:20 22:11 23:2021
149 0:37 1:0.49 2:23 4:1 9:1 12:1197831 14:1 18:1 20:35 21:16 22:1 23:2021
275 0:37 1:0.35 2:75.00000000000001 9:1 12:1197831 14:1 18:1 20:35 21:20 22:11 23:2021
94 0:37 1:0.53 2:54 6:1 9:1 12:1197831 14:1 18:1 20:35 21:19 22:12 23:2021
600 0:37 1:0.35 2:25.00000000000001 4:1 9:1 12:1197831 14:1 18:1 20:35 21:14 22:2 23:2021
131 0:37 1:0.45 2:44 7:1 9:1 12:1197831 14:1 19:1 20:35 21:19 22:12 23:2021
350 0:37 1:0.35 2:15.00000000000001 7:1 9:1 12:1197831 14:1 18:1 20:35 21:16 22:1 23:2021
81 0:37 1:0.48 2:69 9:1 12:1197831 14:1 18:1 20:35 21:19 22:12 23:2021
425 0:37 1:0.4 2:75 5:1 9:1 12:1197831 14:1 18:1 20:35 21:19 22:12 23:2021
169 0:37 1:0.55 2:64 4:1 9:1 12:1197831 14:1 18:1 20:35 21:19 22:12 23:2021
245 0:37 1:0.4 2:25.00000000000002 7:1 9:1 12:1197831 14:1 18:1 20:35 21:20 22:11 23:2021
