500 0:50 1:0.35 2:65 5:1 12:1197831 14:1 18:1 20:15 21:12 22:7 23:2021
108 0:5 1:0.38 2:59 5:1 12:1189833 14:1 18:1 20:25 21:26 22:1 23:2021
675 0:5 1:0.45 2:45 4:1 12:1189833 14:1 19:1 20:25 21:4 22:3 23:2021
91 0:5 1:0.53 2:44 6:1 12:1189833 14:1 18:1 20:25 21:12 22:1 23:2021
450 0:50 1:0.35 2:60 5:1 12:1197831 14:1 18:1 20:15 21:14 22:6 23:2021
165 0:5 1:0.55 2:44 7:1 12:1189833 14:1 18:1 20:25 21:29 22:1 23:2021
98 0:50 1:0.49 2:18 5:1 12:1197831 14:1 18:1 20:15 21:14 22:2 23:2021
128 0:5 1:0.5700000000000001 2:42 7:1 12:1189833 14:1 18:1 20:25 21:11 22:1 23:2021
119 0:5 1:0.37 2:43 5:1 12:1189833 14:1 18:1 20:25 21:8 22:1 23:2021
200 0:50 1:0.35 2:25 3:1 12:1197831 14:1 18:1 20:15 21:13 22:4 23:2021
180 0:5 1:0.5800000000000001 2:41 4:1 12:1189833 14:1 18:1 20:25 21:14 22:2 23:2021
173 0:5 1:0.55 2:32 4:1 12:1189833 14:1 18:1 20:25 21:9 22:1 23:2021
250 0:50 1:0.35 2:25 5:1 12:1197831 14:1 18:1 20:15 21:12 22:3 23:2021
58 0:50 1:0.48 2:25 3:1 12:1197831 14:1 18:1 20:15 21:13 22:4 23:2021
525 0:5 1:0.45 2:35 4:1 12:1189833 14:1 19:1 20:25 21:3 22:1 23:2021
143 0:5 1:0.35 2:58 5:1 12:1189833 14:1 18:1 20:25 21:7 22:2 23:2021
425 0:5 1:0.4 2:40 6:1 12:1189833 14:1 19:1 20:25 21:30 22:1 23:2021
175 0:50 1:0.35 2:20.00000000000001 6:1 12:1197831 14:1 18:1 20:15 21:14 22:10 23:2021
119 0:33 1:0.5900000000000001 2:41 7:1 12:1189833 14:1 18:1 20:22 21:30 22:12 23:2020
60 0:50 1:0.47 2:19 7:1 12:1197831 14:1 18:1 20:15 21:14 22:10 23:2021
173 0:5 1:0.41 2:42 3:1 12:1189833 14:1 18:1 20:25 21:27 22:2 23:2021
113 0:5 1:0.53 2:36 6:1 12:1189833 14:1 18:1 20:25 21:5 22:2 23:2021
275 0:50 1:0.35 2:54.99999999999999 12:1197831 14:1 18:1 20:15 21:14 22:6 23:2021
450 0:5 1:0.45 2:45 7:1 12:1189833 14:1 19:1 20:25 21:16 22:2 23:2021
425 0:5 1:0.45 2:40 7:1 12:1189833 14:1 19:1 20:25 21:28 22:2 23:2021
26 0:50 1:0.48 2:20 6:1 12:1197831 14:1 18:1 20:15 21:12 22:3 23:2021
150 0:50 1:0.35 2:35.00000000000001 12:1197831 14:1 18:1 20:15 21:12 22:3 23:2021
250 0:50 1:0.35 2:15.00000000000001 7:1 12:1197831 14:1 18:1 20:15 21:12 22:9 23:2021
75 0:5 1:0.7400000000000001 2:41 12:1189833 14:1 18:1 20:25 21:31 22:1 23:2021
225 0:5 1:0.6000000000000001 2:45 12:1189833 14:1 19:1 20:25 21:25 22:1 23:2021
550 0:5 1:0.3 2:50 3:1 12:1189833 14:1 19:1 20:25 21:21 22:2 23:2021
450 0:5 1:0.25 2:60 5:1 12:1189833 14:1 19:1 20:25 21:19 22:2 23:2021
350 0:50 1:0.35 2:40.00000000000001 3:1 12:1197831 14:1 18:1 20:15 21:12 22:9 23:2021
450 0:5 1:0.4 2:40 6:1 12:1189833 14:1 19:1 20:25 21:5 22:2 23:2021
169 0:5 1:0.5900000000000001 2:36 4:1 12:1189833 14:1 18:1 20:25 21:27 22:1 23:2021
77 0:50 1:0.48 2:39 3:1 12:1197831 14:1 18:1 20:15 21:12 22:5 23:2021
81 0:50 1:0.46 2:37 7:1 12:1197831 14:1 18:1 20:15 21:14 22:6 23:2021
122 0:5 1:0.4 2:59 5:1 12:1189833 14:1 18:1 20:25 21:19 22:2 23:2021
375 0:5 1:0.25 2:60 5:1 12:1189833 14:1 19:1 20:25 21:20 22:1 23:2021
675 0:5 1:0.45 2:40 4:1 12:1189833 14:1 19:1 20:25 21:27 22:1 23:2021
400 0:5 1:0.45 2:45 7:1 12:1189833 14:1 19:1 20:25 21:17 22:1 23:2021
80 0:50 1:0.45 2:38 6:1 12:1197831 14:1 18:1 20:15 21:14 22:6 23:2021
500 0:50 1:0.35 2:30.00000000000001 4:1 12:1197831 14:1 18:1 20:15 21:14 22:10 23:2021
275 0:50 1:0.35 2:40 3:1 12:1197831 14:1 18:1 20:15 21:12 22:5 23:2021
600 0:5 1:0.45 2:45 4:1 12:1189833 14:1 19:1 20:25 21:14 22:2 23:2021
88 0:5 1:0.53 2:38 6:1 12:1189833 14:1 18:1 20:25 21:24 22:1 23:2021
120 0:5 1:0.7300000000000001 2:53 12:1189833 14:1 18:1 20:25 21:8 22:3 23:2021
425 0:50 1:0.35 2:55.00000000000001 3:1 12:1197831 14:1 18:1 20:15 21:13 22:8 23:2021
275 0:5 1:0.6000000000000001 2:50 12:1189833 14:1 19:1 20:25 21:1 22:1 23:2021
59 0:5 1:0.7200000000000001 2:48 12:1189833 14:1 18:1 20:25 21:7 22:1 23:2021
153 0:50 1:0.49 2:20 4:1 12:1197831 14:1 18:1 20:15 21:12 22:3 23:2021
175 0:50 1:0.35 2:30.00000000000001 12:1197831 14:1 18:1 20:15 21:14 22:10 23:2021
61 0:50 1:0.49 2:24 12:1197831 14:1 18:1 20:15 21:12 22:9 23:2021
147 0:5 1:0.41 2:42 3:1 12:1189833 14:1 18:1 20:25 21:28 22:1 23:2021
550 0:5 1:0.45 2:45 4:1 12:1189833 14:1 19:1 20:25 21:20 22:2 23:2021
111 0:50 1:0.45 2:51 3:1 12:1197831 14:1 18:1 20:15 21:13 22:8 23:2021
56 0:50 1:0.5 2:43 12:1197831 14:1 18:1 20:15 21:12 22:5 23:2021
675 0:5 1:0.45 2:45 4:1 12:1189833 14:1 19:1 20:25 21:8 22:2 23:2021
117 0:5 1:0.5600000000000001 2:42 7:1 12:1189833 14:1 18:1 20:25 21:16 22:2 23:2021
425 0:5 1:0.4 2:45 6:1 12:1189833 14:1 19:1 20:25 21:11 22:2 23:2021
69 0:50 1:0.5 2:47 12:1197831 14:1 18:1 20:15 21:13 22:8 23:2021
196 0:5 1:0.5600000000000001 2:41 4:1 12:1189833 14:1 18:1 20:25 21:4 22:3 23:2021
425 0:5 1:0.3 2:45 3:1 12:1189833 14:1 19:1 20:25 21:4 22:1 23:2021
300 0:5 1:0.4 2:45 6:1 12:1189833 14:1 19:1 20:25 21:6 22:1 23:2021
575 0:50 1:0.35 2:40 4:1 12:1197831 14:1 18:1 20:15 21:14 22:6 23:2021
115 0:5 1:0.41 2:41 3:1 12:1189833 14:1 18:1 20:25 21:10 22:1 23:2021
425 0:5 1:0.3 2:45 3:1 12:1189833 14:1 19:1 20:25 21:10 22:1 23:2021
450 0:50 1:0.35 2:55.00000000000001 5:1 12:1197831 14:1 18:1 20:15 21:13 22:8 23:2021
81 0:5 1:0.5499999999999999 2:44 6:1 12:1189833 14:1 18:1 20:25 21:6 22:1 23:2021
300 0:5 1:0.4 2:40 6:1 12:1189833 14:1 19:1 20:25 21:18 22:1 23:2021
200 0:50 1:0.35 2:20.00000000000001 7:1 12:1197831 14:1 18:1 20:15 21:14 22:10 23:2021
91 0:50 1:0.45 2:38 3:1 12:1197831 14:1 18:1 20:15 21:12 22:9 23:2021
225 0:50 1:0.35 2:15.00000000000001 6:1 12:1197831 14:1 18:1 20:15 21:12 22:9 23:2021
425 0:5 1:0.45 2:45 7:1 12:1189833 14:1 19:1 20:25 21:23 22:1 23:2021
350 0:50 1:0.35 2:45 7:1 12:1197831 14:1 18:1 20:15 21:12 22:7 23:2021
143 0:50 1:0.45 2:36 4:1 12:1197831 14:1 18:1 20:15 21:12 22:5 23:2021
250 0:50 1:0.35 2:10 7:1 12:1197831 14:1 18:1 20:15 21:12 22:3 23:2021
325 0:50 1:0.35 2:30.00000000000001 5:1 12:1197831 14:1 18:1 20:15 21:12 22:9 23:2021
119 0:5 1:0.5499999999999999 2:39 6:1 12:1189833 14:1 18:1 20:25 21:1 22:3 23:2021
750 0:5 1:0.45 2:40 4:1 12:1189833 14:1 19:1 20:25 21:2 22:2 23:2021
300 0:50 1:0.35 2:40 7:1 12:1197831 14:1 18:1 20:15 21:14 22:6 23:2021
83 0:50 1:0.48 2:54 12:1197831 14:1 18:1 20:15 21:14 22:6 23:2021
400 0:5 1:0.25 2:60 5:1 12:1189833 14:1 19:1 20:25 21:25 22:2 23:2021
42 0:50 1:0.45 2:20 6:1 12:1197831 14:1 18:1 20:15 21:14 22:2 23:2021
600 0:5 1:0.25 2:60 5:1 12:1189833 14:1 19:1 20:25 21:1 22:2 23:2021
160 0:5 1:0.43 2:49 3:1 12:1189833 14:1 18:1 20:25 21:21 22:2 23:2021
200 0:50 1:0.35 2:15 7:1 12:1197831 14:1 18:1 20:15 21:13 22:4 23:2021
575 0:5 1:0.45 2:35 4:1 12:1189833 14:1 19:1 20:25 21:9 22:1 23:2021
400 0:5 1:0.25 2:45 5:1 12:1189833 14:1 19:1 20:25 21:14 22:1 23:2021
450 0:5 1:0.45 2:45 7:1 12:1189833 14:1 19:1 20:25 21:5 22:1 23:2021
425 0:5 1:0.3 2:45 3:1 12:1189833 14:1 19:1 20:25 21:22 22:1 23:2021
475 0:5 1:0.25 2:60 5:1 12:1189833 14:1 19:1 20:25 21:7 22:2 23:2021
113 0:50 1:0.5 2:52 5:1 12:1197831 14:1 18:1 20:15 21:13 22:8 23:2021
188 0:5 1:0.43 2:54 3:1 12:1189833 14:1 18:1 20:25 21:9 22:2 23:2021
112 0:5 1:0.39 2:42 5:1 12:1189833 14:1 18:1 20:25 21:14 22:1 23:2021
575 0:5 1:0.45 2:40 4:1 12:1189833 14:1 19:1 20:25 21:21 22:1 23:2021
375 0:5 1:0.4 2:45 6:1 12:1189833 14:1 19:1 20:25 21:23 22:2 23:2021
130 0:5 1:0.4 2:55 5:1 12:1189833 14:1 18:1 20:25 21:9 22:3 23:2021
106 0:5 1:0.7000000000000001 2:52 12:1189833 14:1 18:1 20:25 21:12 22:2 23:2021
475 0:33 1:0.45 2:35 4:1 12:1189833 14:1 19:1 20:22 21:28 22:12 23:2020
60 0:50 1:0.5 2:14 7:1 12:1197831 14:1 18:1 20:15 21:13 22:4 23:2021
94 0:50 1:0.45 2:42 5:1 12:1197831 14:1 18:1 20:15 21:12 22:5 23:2021
575 0:5 1:0.45 2:40 4:1 12:1189833 14:1 19:1 20:25 21:26 22:2 23:2021
65 0:50 1:0.47 2:14 6:1 12:1197831 14:1 18:1 20:15 21:12 22:9 23:2021
120 0:5 1:0.6 2:44 7:1 12:1189833 14:1 18:1 20:25 21:17 22:1 23:2021
130 0:5 1:0.5900000000000001 2:49 7:1 12:1189833 14:1 18:1 20:25 21:10 22:2 23:2021
167 0:5 1:0.5900000000000001 2:38 4:1 12:1189833 14:1 18:1 20:25 21:26 22:2 23:2021
545 0:50 1:0.35 2:20 4:1 12:1197831 14:1 18:1 20:15 21:12 22:3 23:2021
225 0:50 1:0.35 2:35 12:1197831 14:1 18:1 20:15 21:14 22:2 23:2021
203 0:5 1:0.5900000000000001 2:37 4:1 12:1189833 14:1 18:1 20:25 21:2 22:2 23:2021
675 0:5 1:0.3 2:50 3:1 12:1189833 14:1 19:1 20:25 21:5 22:3 23:2021
570 0:50 1:0.35 2:40 4:1 12:1197831 14:1 18:1 20:15 21:12 22:5 23:2021
475 0:5 1:0.25 2:60 5:1 12:1189833 14:1 19:1 20:25 21:3 22:3 23:2021
75 0:50 1:0.46 2:9 7:1 12:1197831 14:1 18:1 20:15 21:12 22:3 23:2021
200 0:5 1:0.6000000000000001 2:45 12:1189833 14:1 19:1 20:25 21:19 22:1 23:2021
400 0:5 1:0.45 2:45 7:1 12:1189833 14:1 19:1 20:25 21:22 22:2 23:2021
123 0:5 1:0.5700000000000001 2:37 7:1 12:1189833 14:1 18:1 20:25 21:28 22:2 23:2021
35 0:50 1:0.45 2:19 6:1 12:1197831 14:1 18:1 20:15 21:13 22:4 23:2021
81 0:50 1:0.49 2:29 5:1 12:1197831 14:1 18:1 20:15 21:13 22:4 23:2021
101 0:5 1:0.45 2:43 3:1 12:1189833 14:1 18:1 20:25 21:16 22:1 23:2021
138 0:5 1:0.39 2:43 5:1 12:1189833 14:1 18:1 20:25 21:2 22:1 23:2021
106 0:5 1:0.54 2:41 6:1 12:1189833 14:1 18:1 20:25 21:11 22:2 23:2021
100 0:5 1:0.7300000000000001 2:50 12:1189833 14:1 18:1 20:25 21:18 22:2 23:2021
38 0:50 1:0.49 2:39 12:1197831 14:1 18:1 20:15 21:13 22:4 23:2021
675 0:50 1:0.35 2:54.99999999999999 4:1 12:1197831 14:1 18:1 20:15 21:12 22:7 23:2021
94 0:50 1:0.48 2:32 3:1 12:1197831 14:1 18:1 20:15 21:14 22:6 23:2021
575 0:5 1:0.3 2:45.00000000000001 3:1 12:1189833 14:1 19:1 20:25 21:27 22:2 23:2021
650 0:50 1:0.35 2:60 4:1 12:1197831 14:1 18:1 20:15 21:13 22:8 23:2021
