200 0:23 1:0.35 2:15 7:1 12:1185732 17:1 20:13 21:10 22:4 23:2021
50 0:32 1:0.62 2:48 12:1185732 17:1 18:1 20:48 21:2 22:7 23:2021
39 0:32 1:0.46 2:20 3:1 12:1185732 17:1 18:1 20:48 21:3 22:4 23:2021
90 0:32 1:0.51 2:47 5:1 12:1185732 17:1 18:1 20:48 21:4 22:5 23:2021
175 0:23 1:0.3 2:40 12:1185732 17:1 20:13 21:10 22:6 23:2021
350 0:49 1:0.4 2:35 6:1 12:1185732 17:1 20:24 21:17 22:12 23:2021
200 0:23 1:0.35 2:30 7:1 12:1185732 17:1 20:13 21:10 22:6 23:2021
275 0:23 1:0.4 2:30.00000000000001 3:1 12:1185732 17:1 20:13 21:11 22:9 23:2021
150 0:32 1:0.35 2:30 6:1 12:1185732 17:1 20:48 21:10 22:1 23:2021
49 0:32 1:0.45 2:33 7:1 12:1185732 17:1 18:1 20:48 21:4 22:5 23:2021
470 0:32 1:0.3 2:20 4:1 12:1185732 17:1 20:48 21:2 22:3 23:2021
350 0:23 1:0.4 2:64.99999999999999 5:1 12:1185732 17:1 20:13 21:10 22:11 23:2021
250 0:32 1:0.5 2:60 12:1185732 17:1 20:48 21:2 22:12 23:2021
475 0:32 1:0.3 2:35 4:1 12:1185732 17:1 20:48 21:4 22:9 23:2021
250 0:23 1:0.3 2:60 12:1185732 17:1 20:13 21:10 22:11 23:2021
200 0:23 1:0.4 2:44.99999999999999 12:1185732 17:1 20:13 21:17 22:1 23:2021
150 0:23 1:0.3 2:44.99999999999999 12:1185732 17:1 20:13 21:10 22:10 23:2021
87 0:32 1:0.45 2:24 7:1 12:1185732 17:1 18:1 20:48 21:10 22:1 23:2021
70 0:17 1:0.46 2:29 3:1 12:1185732 17:1 18:1 20:14 21:3 22:1 23:2021
350 0:32 1:0.4 2:55.00000000000001 5:1 12:1185732 17:1 20:48 21:3 22:8 23:2021
220 0:17 1:0.3 2:35 7:1 12:1185732 17:1 20:14 21:6 22:11 23:2021
475 0:23 1:0.4 2:35 4:1 12:1185732 17:1 20:13 21:11 22:9 23:2021
56 0:32 1:0.4 2:39 7:1 12:1185732 17:1 18:1 20:48 21:3 22:8 23:2021
175 0:23 1:0.3 2:35 12:1185732 17:1 20:13 21:9 22:3 23:2021
47 0:32 1:0.41 2:24 6:1 12:1185732 17:1 18:1 20:48 21:3 22:6 23:2021
175 0:23 1:0.3 2:50 12:1185732 17:1 20:13 21:10 22:8 23:2021
200 0:23 1:0.4 2:40 3:1 12:1185732 17:1 20:13 21:17 22:2 23:2021
250 0:23 1:0.4 2:35 3:1 12:1185732 17:1 20:13 21:10 22:10 23:2021
550 0:23 1:0.4 2:55.00000000000001 4:1 12:1185732 17:1 20:13 21:9 22:7 23:2021
22 0:32 1:0.41 2:15 6:1 12:1185732 17:1 18:1 20:48 21:3 22:4 23:2021
105 0:23 1:0.46 2:49 7:1 12:1185732 17:1 18:1 20:13 21:9 22:12 23:2021
73 0:17 1:0.55 2:28 5:1 12:1185732 17:1 18:1 20:14 21:3 22:1 23:2021
113 0:32 1:0.42 2:43 4:1 12:1185732 17:1 18:1 20:48 21:3 22:10 23:2021
56 0:23 1:0.47 2:34 7:1 12:1185732 17:1 18:1 20:13 21:11 22:5 23:2021
400 0:23 1:0.4 2:64.99999999999999 5:1 12:1185732 17:1 20:13 21:9 22:12 23:2021
400 0:32 1:0.3 2:44.99999999999999 4:1 12:1185732 17:1 20:48 21:3 22:11 23:2021
60 0:17 1:0.43 2:20 7:1 12:1185732 17:1 18:1 20:14 21:3 22:2 23:2021
126 0:49 1:0.61 2:47 5:1 12:1185732 17:1 18:1 20:24 21:17 22:12 23:2021
225 0:17 1:0.3 2:50 6:1 12:1185732 17:1 20:14 21:5 22:12 23:2021
200 0:23 1:0.3 2:44.99999999999999 12:1185732 17:1 20:13 21:10 22:2 23:2021
150 0:23 1:0.51 2:58 4:1 12:1185732 17:1 18:1 20:13 21:9 22:12 23:2021
44 0:32 1:0.45 2:24 7:1 12:1185732 17:1 18:1 20:48 21:4 22:9 23:2021
134 0:32 1:0.41 2:58 4:1 12:1185732 17:1 18:1 20:48 21:4 22:5 23:2021
91 0:23 1:0.52 2:53 5:1 12:1185732 17:1 18:1 20:13 21:11 22:5 23:2021
450 0:49 1:0.5 2:49.99999999999999 5:1 12:1185732 17:1 20:24 21:17 22:12 23:2021
350 0:49 1:0.35 2:44.99999999999999 12:1185732 17:1 20:24 21:17 22:12 23:2021
125 0:32 1:0.5 2:35 12:1185732 17:1 20:48 21:4 22:9 23:2021
57 0:17 1:0.44 2:32 7:1 12:1185732 17:1 18:1 20:14 21:6 22:11 23:2021
68 0:23 1:0.52 2:36 5:1 12:1185732 17:1 18:1 20:13 21:11 22:9 23:2021
33 0:32 1:0.63 2:44 12:1185732 17:1 18:1 20:48 21:3 22:10 23:2021
73 0:17 1:0.53 2:49 5:1 12:1185732 17:1 18:1 20:14 21:6 22:10 23:2021
375 0:49 1:0.35 2:35 12:1185732 17:1 20:24 21:11 22:1 23:2021
122 0:32 1:0.41 2:18 4:1 12:1185732 17:1 18:1 20:48 21:3 22:4 23:2021
545 0:23 1:0.4 2:60 4:1 12:1185732 17:1 20:13 21:11 22:5 23:2021
126 0:17 1:0.45 2:28 4:1 12:1185732 17:1 18:1 20:14 21:3 22:1 23:2021
88 0:49 1:0.52 2:34 6:1 12:1185732 17:1 18:1 20:24 21:17 22:12 23:2021
525 0:14 1:0.35 2:75.00000000000001 12:1185732 17:1 18:1 20:34 21:9 22:12 23:2021
375 0:23 1:0.4 2:60.00000000000001 5:1 12:1185732 17:1 20:13 21:9 22:7 23:2021
300 0:32 1:0.3 2:50 7:1 12:1185732 17:1 20:48 21:2 22:12 23:2021
150 0:23 1:0.35 2:35 7:1 12:1185732 17:1 20:13 21:10 22:10 23:2021
275 0:17 1:0.4 2:64.99999999999999 5:1 12:1185732 17:1 20:14 21:6 22:11 23:2021
325 0:23 1:0.4 2:35.00000000000001 3:1 12:1185732 17:1 20:13 21:10 22:6 23:2021
73 0:32 1:0.6 2:57 12:1185732 17:1 18:1 20:48 21:2 22:12 23:2021
58 0:32 1:0.44 2:41 12:1185732 17:1 18:1 20:48 21:10 22:1 23:2021
88 0:17 1:0.55 2:59 5:1 12:1185732 17:1 18:1 20:14 21:5 22:12 23:2021
44 0:23 1:0.43 2:32 12:1185732 17:1 18:1 20:13 21:9 22:3 23:2021
525 0:23 1:0.4 2:50 4:1 12:1185732 17:1 20:13 21:10 22:8 23:2021
45 0:17 1:0.62 2:38 12:1185732 17:1 18:1 20:14 21:3 22:1 23:2021
275 0:23 1:0.4 2:50 5:1 12:1185732 17:1 20:13 21:10 22:4 23:2021
65 0:32 1:0.51 2:14 5:1 12:1185732 17:1 18:1 20:48 21:3 22:2 23:2021
73 0:23 1:0.55 2:37 3:1 12:1185732 17:1 18:1 20:13 21:11 22:5 23:2021
91 0:23 1:0.54 2:61 5:1 12:1185732 17:1 18:1 20:13 21:10 22:11 23:2021
61 0:32 1:0.43 2:38 7:1 12:1185732 17:1 18:1 20:48 21:2 22:7 23:2021
300 0:32 1:0.4 2:49.99999999999999 5:1 12:1185732 17:1 20:48 21:4 22:5 23:2021
250 0:32 1:0.4 2:15 5:1 12:1185732 17:1 20:48 21:3 22:2 23:2021
375 0:32 1:0.4 2:55.00000000000001 5:1 12:1185732 17:1 20:48 21:2 22:7 23:2021
325 0:23 1:0.4 2:35 3:1 12:1185732 17:1 20:13 21:10 22:11 23:2021
175 0:32 1:0.3 2:35 7:1 12:1185732 17:1 20:48 21:4 22:5 23:2021
425 0:23 1:0.4 2:44.99999999999999 4:1 12:1185732 17:1 20:13 21:10 22:11 23:2021
133 0:49 1:0.47 2:23 3:1 12:1185732 17:1 18:1 20:24 21:11 22:1 23:2021
200 0:32 1:0.3 2:25.00000000000001 7:1 12:1185732 17:1 20:48 21:3 22:6 23:2021
475 0:49 1:0.35 2:25 3:1 12:1185732 17:1 20:24 21:11 22:1 23:2021
34 0:32 1:0.61 2:29 12:1185732 17:1 18:1 20:48 21:2 22:3 23:2021
175 0:32 1:0.5 2:35 12:1185732 17:1 20:48 21:3 22:6 23:2021
54 0:23 1:0.51 2:41 12:1185732 17:1 18:1 20:13 21:17 22:1 23:2021
250 0:17 1:0.4 2:49.99999999999999 5:1 12:1185732 17:1 20:14 21:6 22:10 23:2021
325 0:23 1:0.4 2:54.99999999999999 5:1 12:1185732 17:1 20:13 21:11 22:5 23:2021
133 0:23 1:0.54 2:33 4:1 12:1185732 17:1 18:1 20:13 21:11 22:9 23:2021
39 0:17 1:0.49 2:29 3:1 12:1185732 17:1 18:1 20:14 21:3 22:2 23:2021
149 0:23 1:0.53 2:51 4:1 12:1185732 17:1 18:1 20:13 21:9 22:7 23:2021
83 0:17 1:0.42 2:47 7:1 12:1185732 17:1 18:1 20:14 21:5 22:12 23:2021
94 0:32 1:0.54 2:52 5:1 12:1185732 17:1 18:1 20:48 21:2 22:7 23:2021
75 0:23 1:0.55 2:32 3:1 12:1185732 17:1 18:1 20:13 21:17 22:1 23:2021
350 0:32 1:0.4 2:64.99999999999999 5:1 12:1185732 17:1 20:48 21:2 22:12 23:2021
325 0:49 1:0.4 2:20.00000000000001 6:1 12:1185732 17:1 20:24 21:11 22:1 23:2021
50 0:32 1:0.45 2:39 6:1 12:1185732 17:1 18:1 20:48 21:3 22:8 23:2021
101 0:49 1:0.47 2:24 3:1 12:1185732 17:1 18:1 20:24 21:11 22:2 23:2021
175 0:32 1:0.35 2:20 3:1 12:1185732 17:1 20:48 21:2 22:3 23:2021
125 0:32 1:0.5 2:30 12:1185732 17:1 20:48 21:2 22:3 23:2021
325 0:17 1:0.4 2:64.99999999999999 5:1 12:1185732 17:1 20:14 21:5 22:12 23:2021
400 0:49 1:0.35 2:35 7:1 12:1185732 17:1 20:24 21:17 22:12 23:2021
26 0:32 1:0.62 2:55 12:1185732 17:1 18:1 20:48 21:3 22:4 23:2021
98 0:49 1:0.47 2:33 12:1185732 17:1 18:1 20:24 21:11 22:1 23:2021
270 0:23 1:0.35 2:35 7:1 12:1185732 17:1 20:13 21:10 22:11 23:2021
300 0:32 1:0.4 2:35 5:1 12:1185732 17:1 20:48 21:10 22:1 23:2021
101 0:23 1:0.51 2:54 5:1 12:1185732 17:1 18:1 20:13 21:9 22:7 23:2021
42 0:23 1:0.4 2:33 12:1185732 17:1 18:1 20:13 21:11 22:9 23:2021
49 0:17 1:0.6 2:55 12:1185732 17:1 18:1 20:14 21:6 22:11 23:2021
63 0:32 1:0.54 2:18 5:1 12:1185732 17:1 18:1 20:48 21:2 22:3 23:2021
90 0:32 1:0.49 2:27 3:1 12:1185732 17:1 18:1 20:48 21:3 22:6 23:2021
200 0:23 1:0.3 2:55.00000000000001 12:1185732 17:1 20:13 21:9 22:7 23:2021
74 0:23 1:0.52 2:24 5:1 12:1185732 17:1 18:1 20:13 21:9 22:3 23:2021
475 0:49 1:0.5 2:25 5:1 12:1185732 17:1 20:24 21:11 22:1 23:2021
54 0:23 1:0.52 2:23 3:1 12:1185732 17:1 18:1 20:13 21:10 22:4 23:2021
141 0:32 1:0.41 2:19 4:1 12:1185732 17:1 18:1 20:48 21:2 22:3 23:2021
59 0:17 1:0.61 2:59 12:1185732 17:1 18:1 20:14 21:5 22:12 23:2021
225 0:17 1:0.5 2:60 12:1185732 17:1 20:14 21:5 22:12 23:2021
225 0:23 1:0.35 2:45 7:1 12:1185732 17:1 20:13 21:9 22:7 23:2021
275 0:17 1:0.35 2:35 3:1 12:1185732 17:1 20:14 21:6 22:11 23:2021
300 0:32 1:0.4 2:35 3:1 12:1185732 17:1 20:48 21:10 22:1 23:2021
34 0:32 1:0.45 2:23 6:1 12:1185732 17:1 18:1 20:48 21:4 22:9 23:2021
102 0:32 1:0.47 2:49 3:1 12:1185732 17:1 18:1 20:48 21:2 22:12 23:2021
112 0:17 1:0.44 2:41 4:1 12:1185732 17:1 18:1 20:14 21:6 22:11 23:2021
125 0:23 1:0.35 2:30 6:1 12:1185732 17:1 20:13 21:10 22:2 23:2021
200 0:23 1:0.4 2:25.00000000000001 3:1 12:1185732 17:1 20:13 21:10 22:4 23:2021
300 0:23 1:0.4 2:35 5:1 12:1185732 17:1 20:13 21:17 22:1 23:2021
225 0:32 1:0.4 2:20 5:1 12:1185732 17:1 20:48 21:2 22:3 23:2021
250 0:17 1:0.4 2:30 5:1 12:1185732 17:1 20:14 21:3 22:1 23:2021
375 0:32 1:0.3 2:44.99999999999999 4:1 12:1185732 17:1 20:48 21:3 22:10 23:2021
83 0:23 1:0.53 2:48 5:1 12:1185732 17:1 18:1 20:13 21:10 22:10 23:2021
31 0:23 1:0.45 2:19 6:1 12:1185732 17:1 18:1 20:13 21:9 22:3 23:2021
150 0:32 1:0.35 2:20 3:1 12:1185732 17:1 20:48 21:3 22:4 23:2021
68 0:32 1:0.48 2:33 3:1 12:1185732 17:1 18:1 20:48 21:3 22:10 23:2021
150 0:23 1:0.3 2:35 12:1185732 17:1 20:13 21:11 22:9 23:2021
225 0:23 1:0.35 2:35 7:1 12:1185732 17:1 20:13 21:11 22:5 23:2021
84 0:32 1:0.47 2:43 3:1 12:1185732 17:1 18:1 20:48 21:3 22:8 23:2021
300 0:23 1:0.4 2:30 7:1 12:1185732 17:1 20:13 21:17 22:2 23:2021
53 0:23 1:0.45 2:36 12:1185732 17:1 18:1 20:13 21:10 22:6 23:2021
150 0:23 1:0.3 2:65 12:1185732 17:1 20:13 21:10 22:4 23:2021
29 0:17 1:0.45 2:23 6:1 12:1185732 17:1 18:1 20:14 21:3 22:1 23:2021
149 0:32 1:0.42 2:45 4:1 12:1185732 17:1 18:1 20:48 21:2 22:7 23:2021
550 0:32 1:0.4 2:35 4:1 12:1185732 17:1 20:48 21:10 22:2 23:2021
500 0:23 1:0.4 2:25.00000000000001 4:1 12:1185732 17:1 20:13 21:10 22:4 23:2021
91 0:23 1:0.51 2:56 5:1 12:1185732 17:1 18:1 20:13 21:10 22:6 23:2021
525 0:14 1:0.4 2:65.00000000000001 6:1 12:1185732 17:1 18:1 20:34 21:9 22:12 23:2021
72 0:17 1:0.52 2:59 5:1 12:1185732 17:1 18:1 20:14 21:6 22:11 23:2021
61 0:23 1:0.55 2:23 3:1 12:1185732 17:1 18:1 20:13 21:9 22:3 23:2021
33 0:32 1:0.41 2:32 6:1 12:1185732 17:1 18:1 20:48 21:3 22:10 23:2021
44 0:23 1:0.46 2:33 6:1 12:1185732 17:1 18:1 20:13 21:10 22:10 23:2021
52 0:23 1:0.5 2:14 7:1 12:1185732 17:1 18:1 20:13 21:10 22:4 23:2021
175 0:23 1:0.35 2:25.00000000000001 7:1 12:1185732 17:1 20:13 21:11 22:9 23:2021
550 0:32 1:0.3 2:50 4:1 12:1185732 17:1 20:48 21:2 22:7 23:2021
250 0:32 1:0.3 2:50 6:1 12:1185732 17:1 20:48 21:2 22:12 23:2021
275 0:23 1:0.35 2:15 7:1 12:1185732 17:1 20:13 21:9 22:3 23:2021
600 0:23 1:0.4 2:60 4:1 12:1185732 17:1 20:13 21:9 22:12 23:2021
72 0:17 1:0.49 2:32 3:1 12:1185732 17:1 18:1 20:14 21:6 22:11 23:2021
52 0:32 1:0.5 2:38 5:1 12:1185732 17:1 18:1 20:48 21:4 22:9 23:2021
138 0:32 1:0.41 2:58 4:1 12:1185732 17:1 18:1 20:48 21:2 22:12 23:2021
155 0:23 1:0.55 2:36 4:1 12:1185732 17:1 18:1 20:13 21:10 22:6 23:2021
116 0:23 1:0.53 2:41 4:1 12:1185732 17:1 18:1 20:13 21:10 22:10 23:2021
400 0:17 1:0.3 2:44.99999999999999 4:1 12:1185732 17:1 20:14 21:6 22:11 23:2021
108 0:23 1:0.55 2:49 3:1 12:1185732 17:1 18:1 20:13 21:9 22:12 23:2021
73 0:32 1:0.5 2:24 7:1 12:1185732 17:1 18:1 20:48 21:10 22:2 23:2021
225 0:32 1:0.4 2:50 5:1 12:1185732 17:1 20:48 21:3 22:4 23:2021
140 0:17 1:0.41 2:29 4:1 12:1185732 17:1 18:1 20:14 21:3 22:2 23:2021
300 0:23 1:0.4 2:50.00000000000001 3:1 12:1185732 17:1 20:13 21:9 22:7 23:2021
75 0:23 1:0.5 2:34 5:1 12:1185732 17:1 18:1 20:13 21:17 22:1 23:2021
33 0:32 1:0.43 2:34 7:1 12:1185732 17:1 18:1 20:48 21:3 22:10 23:2021
350 0:23 1:0.35 2:50 7:1 12:1185732 17:1 20:13 21:9 22:12 23:2021
275 0:17 1:0.3 2:50 7:1 12:1185732 17:1 20:14 21:5 22:12 23:2021
400 0:23 1:0.4 2:44.99999999999999 4:1 12:1185732 17:1 20:13 21:10 22:10 23:2021
33 0:32 1:0.65 2:33 12:1185732 17:1 18:1 20:48 21:4 22:9 23:2021
104 0:32 1:0.43 2:41 4:1 12:1185732 17:1 18:1 20:48 21:3 22:11 23:2021
325 0:23 1:0.4 2:60.00000000000001 5:1 12:1185732 17:1 20:13 21:10 22:6 23:2021
49 0:23 1:0.47 2:23 7:1 12:1185732 17:1 18:1 20:13 21:11 22:9 23:2021
200 0:32 1:0.3 2:44.99999999999999 12:1185732 17:1 20:48 21:10 22:1 23:2021
400 0:23 1:0.4 2:50 3:1 12:1185732 17:1 20:13 21:9 22:12 23:2021
75 0:32 1:0.51 2:61 5:1 12:1185732 17:1 18:1 20:48 21:3 22:11 23:2021
350 0:23 1:0.4 2:55.00000000000001 5:1 12:1185732 17:1 20:13 21:10 22:8 23:2021
152 0:23 1:0.55 2:47 4:1 12:1185732 17:1 18:1 20:13 21:10 22:8 23:2021
45 0:23 1:0.44 2:61 12:1185732 17:1 18:1 20:13 21:10 22:4 23:2021
68 0:23 1:0.45 2:42 7:1 12:1185732 17:1 18:1 20:13 21:9 22:7 23:2021
38 0:32 1:0.44 2:32 6:1 12:1185732 17:1 18:1 20:48 21:4 22:5 23:2021
87 0:23 1:0.55 2:25 7:1 12:1185732 17:1 18:1 20:13 21:17 22:1 23:2021
450 0:17 1:0.3 2:30 4:1 12:1185732 17:1 20:14 21:3 22:1 23:2021
75 0:32 1:0.3 2:15 6:1 12:1185732 17:1 20:48 21:2 22:3 23:2021
300 0:32 1:0.35 2:25.00000000000001 7:1 12:1185732 17:1 20:48 21:10 22:1 23:2021
143 0:49 1:0.47 2:14 7:1 12:1185732 17:1 18:1 20:24 21:11 22:1 23:2021
500 0:32 1:0.4 2:35 4:1 12:1185732 17:1 20:48 21:10 22:1 23:2021
20 0:32 1:0.43 2:23 6:1 12:1185732 17:1 18:1 20:48 21:3 22:2 23:2021
44 0:32 1:0.5 2:19 3:1 12:1185732 17:1 18:1 20:48 21:2 22:3 23:2021
156 0:14 1:0.6 2:74 5:1 12:1185732 17:1 18:1 20:34 21:9 22:12 23:2021
520 0:23 1:0.4 2:25.00000000000001 4:1 12:1185732 17:1 20:13 21:9 22:3 23:2021
196 0:49 1:0.55 2:23 4:1 12:1185732 17:1 18:1 20:24 21:11 22:1 23:2021
125 0:32 1:0.5 2:44.99999999999999 12:1185732 17:1 20:48 21:3 22:10 23:2021
218 0:49 1:0.53 2:25 4:1 12:1185732 17:1 18:1 20:24 21:11 22:2 23:2021
150 0:23 1:0.4 2:30 6:1 12:1185732 17:1 20:13 21:17 22:1 23:2021
75 0:23 1:0.51 2:27 7:1 12:1185732 17:1 18:1 20:13 21:17 22:2 23:2021
147 0:14 1:0.5 2:63 6:1 12:1185732 17:1 18:1 20:34 21:9 22:12 23:2021
38 0:23 1:0.44 2:41 12:1185732 17:1 18:1 20:13 21:10 22:10 23:2021
300 0:23 1:0.4 2:35 3:1 12:1185732 17:1 20:13 21:17 22:1 23:2021
550 0:32 1:0.3 2:60 4:1 12:1185732 17:1 20:48 21:2 22:12 23:2021
200 0:23 1:0.35 2:40 6:1 12:1185732 17:1 20:13 21:10 22:8 23:2021
325 0:32 1:0.4 2:55.00000000000001 5:1 12:1185732 17:1 20:48 21:3 22:6 23:2021
150 0:32 1:0.3 2:35 6:1 12:1185732 17:1 20:48 21:4 22:5 23:2021
