925 0:31 1:0.5 2:70 5:1 10:1 12:1185732 17:1 20:8 21:10 22:9 23:2020
203 0:31 1:0.4 2:32 7:1 10:1 12:1185732 17:1 18:1 20:8 21:24 22:4 23:2020
138 0:39 1:0.49 2:42 3:1 10:1 12:1185732 17:1 18:1 20:8 21:10 22:2 23:2021
650 0:39 1:0.25 2:35 7:1 10:1 12:1185732 17:1 20:8 21:12 22:1 23:2021
169 0:31 1:0.44 2:38 6:1 10:1 12:1185732 17:1 18:1 20:8 21:15 22:8 23:2020
525 0:39 1:0.2 2:90.00000000000001 10:1 12:1128299 17:1 20:8 21:16 22:12 23:2021
300 0:31 1:0.5600000000000001 2:52 4:1 10:1 12:1185732 17:1 18:1 20:8 21:24 22:4 23:2020
825 0:31 1:0.35 2:55.00000000000001 3:1 10:1 12:1185732 17:1 20:8 21:24 22:4 23:2020
145 0:39 1:0.41 2:37 6:1 10:1 12:1185732 17:1 18:1 20:8 21:12 22:1 23:2021
176 0:39 1:0.65 2:44 5:1 10:1 12:1185732 17:1 18:1 20:8 21:12 22:1 23:2021
290 0:31 1:0.5900000000000001 2:55 4:1 10:1 12:1185732 17:1 18:1 20:8 21:24 22:4 23:2020
900 0:39 1:0.45 2:45 4:1 10:1 12:1185732 17:1 20:8 21:10 22:2 23:2021
200 0:39 1:0.48 2:64 5:1 10:1 12:1128299 17:1 19:1 20:8 21:16 22:12 23:2021
252 0:31 1:0.45 2:55 3:1 10:1 12:1185732 17:1 18:1 20:8 21:18 22:9 23:2020
204 0:39 1:0.33 2:64 7:1 10:1 12:1128299 17:1 19:1 20:8 21:16 22:12 23:2021
550 0:39 1:0.35 2:55.00000000000001 10:1 12:1185732 17:1 20:8 21:12 22:1 23:2021
174 0:39 1:0.37 2:33 7:1 10:1 12:1185732 17:1 18:1 20:8 21:10 22:2 23:2021
675 0:31 1:0.35 2:55.00000000000001 10:1 12:1185732 17:1 20:8 21:24 22:4 23:2020
208 0:31 1:0.6 2:44 5:1 10:1 12:1185732 17:1 18:1 20:8 21:24 22:4 23:2020
700 0:31 1:0.3 2:50 6:1 10:1 12:1185732 17:1 20:8 21:24 22:4 23:2020
272 0:39 1:0.51 2:30 4:1 10:1 12:1185732 17:1 19:1 20:8 21:12 22:1 23:2021
221 0:39 1:0.55 2:35 5:1 10:1 12:1185732 17:1 19:1 20:8 21:12 22:1 23:2021
231 0:31 1:0.37 2:53 7:1 10:1 12:1185732 17:1 18:1 20:8 21:19 22:9 23:2020
775 0:31 1:0.35 2:55.00000000000001 3:1 10:1 12:1185732 17:1 20:8 21:24 22:4 23:2020
189 0:31 1:0.45 2:38 6:1 10:1 12:1185732 17:1 18:1 20:8 21:24 22:4 23:2020
202 0:39 1:0.29 2:26 7:1 10:1 12:1185732 17:1 19:1 20:8 21:12 22:1 23:2021
650 0:39 1:0.5 2:45 5:1 10:1 12:1185732 17:1 20:8 21:12 22:1 23:2021
600 0:39 1:0.25 2:35 7:1 10:1 12:1185732 17:1 20:8 21:10 22:2 23:2021
825 0:31 1:0.25 2:55.00000000000001 7:1 10:1 12:1185732 17:1 20:8 21:13 22:9 23:2020
234 0:39 1:0.55 2:44 4:1 10:1 12:1185732 17:1 18:1 20:8 21:10 22:2 23:2021
299 0:31 1:0.6 2:60 4:1 10:1 12:1185732 17:1 18:1 20:8 21:11 22:9 23:2020
196 0:31 1:0.47 2:58 10:1 12:1185732 17:1 18:1 20:8 21:24 22:4 23:2020
225 0:31 1:0.46 2:57 3:1 10:1 12:1185732 17:1 18:1 20:8 21:12 22:9 23:2020
204 0:39 1:0.34 2:58 6:1 10:1 12:1128299 17:1 19:1 20:8 21:16 22:12 23:2021
600 0:39 1:0.3 2:80.00000000000001 7:1 10:1 12:1128299 17:1 20:8 21:16 22:12 23:2021
180 0:39 1:0.41 2:78 6:1 10:1 12:1128299 17:1 18:1 20:8 21:16 22:12 23:2021
825 0:31 1:0.25 2:55.00000000000001 7:1 10:1 12:1185732 17:1 20:8 21:19 22:9 23:2020
174 0:39 1:0.4 2:75 7:1 10:1 12:1128299 17:1 18:1 20:8 21:16 22:12 23:2021
650 0:39 1:0.35 2:45 3:1 10:1 12:1185732 17:1 20:8 21:12 22:1 23:2021
165 0:39 1:0.41 2:31 3:1 10:1 12:1185732 17:1 19:1 20:8 21:10 22:2 23:2021
147 0:39 1:0.35 2:86 10:1 12:1128299 17:1 18:1 20:8 21:16 22:12 23:2021
550 0:39 1:0.35 2:45 3:1 10:1 12:1185732 17:1 20:8 21:10 22:2 23:2021
217 0:31 1:0.4 2:47 6:1 10:1 12:1185732 17:1 18:1 20:8 21:8 22:9 23:2020
233 0:31 1:0.43 2:53 6:1 10:1 12:1185732 17:1 18:1 20:8 21:14 22:9 23:2020
233 0:31 1:0.49 2:62 10:1 12:1185732 17:1 18:1 20:8 21:9 22:9 23:2020
800 0:31 1:0.5 2:45 5:1 10:1 12:1185732 17:1 20:8 21:24 22:4 23:2020
850 0:39 1:0.45 2:45 4:1 10:1 12:1185732 17:1 20:8 21:12 22:1 23:2021
500 0:39 1:0.3 2:40 6:1 10:1 12:1185732 17:1 20:8 21:12 22:1 23:2021
800 0:31 1:0.35 2:65 10:1 12:1185732 17:1 20:8 21:15 22:9 23:2020
175 0:31 1:0.43 2:49 6:1 10:1 12:1185732 17:1 18:1 20:8 21:24 22:4 23:2020
725 0:31 1:0.35 2:60 10:1 12:1185732 17:1 20:8 21:24 22:4 23:2020
196 0:31 1:0.45 2:52 10:1 12:1185732 17:1 18:1 20:8 21:24 22:4 23:2020
900 0:31 1:0.35 2:60.00000000000001 3:1 10:1 12:1185732 17:1 20:8 21:18 22:9 23:2020
169 0:39 1:0.38 2:32 7:1 10:1 12:1185732 17:1 18:1 20:8 21:12 22:1 23:2021
775 0:31 1:0.35 2:65 10:1 12:1185732 17:1 20:8 21:9 22:9 23:2020
