200 0:29 1:0.35 2:45 10:1 12:1185732 18:1 20:16 21:23 22:9 23:2021
78 0:29 1:0.51 2:39 5:1 10:1 12:1185732 18:1 20:16 21:22 22:2 23:2021
75 0:29 1:0.46 2:46 10:1 12:1185732 18:1 20:16 21:21 22:7 23:2021
137 0:29 1:0.53 2:48 4:1 10:1 12:1185732 18:1 20:16 21:23 22:9 23:2021
75 0:29 1:0.5 2:36 5:1 10:1 12:1185732 18:1 20:16 21:22 22:4 23:2021
65 0:29 1:0.51 2:42 5:1 10:1 12:1185732 18:1 20:16 21:21 22:3 23:2021
173 0:11 1:0.65 2:32 5:1 10:1 12:1185732 18:1 20:32 21:13 22:1 23:2021
250 0:29 1:0.4 2:35 7:1 10:1 12:1185732 18:1 20:16 21:21 22:3 23:2021
143 0:11 1:0.5 2:33 3:1 10:1 12:1185732 18:1 20:32 21:11 22:2 23:2021
65 0:29 1:0.49 2:49 10:1 12:1185732 18:1 20:16 21:22 22:8 23:2021
275 0:29 1:0.4 2:50 5:1 10:1 12:1185732 18:1 20:16 21:23 22:9 23:2021
100 0:29 1:0.4 2:45 6:1 10:1 12:1185732 18:1 20:16 21:22 22:4 23:2021
250 0:29 1:0.35 2:50 10:1 12:1185732 18:1 20:16 21:21 22:7 23:2021
74 0:29 1:0.52 2:49 5:1 10:1 12:1185732 18:1 20:16 21:23 22:9 23:2021
225 0:29 1:0.35 2:50 10:1 12:1185732 18:1 20:16 21:22 22:8 23:2021
77 0:29 1:0.49 2:33 3:1 10:1 12:1185732 18:1 20:16 21:22 22:6 23:2021
225 0:29 1:0.4 2:30 7:1 10:1 12:1185732 18:1 20:16 21:22 22:6 23:2021
100 0:29 1:0.4 2:40 6:1 10:1 12:1185732 18:1 20:16 21:21 22:3 23:2021
158 0:11 1:0.5 2:23 7:1 10:1 12:1185732 18:1 20:32 21:11 22:2 23:2021
35 0:29 1:0.49 2:47 10:1 12:1185732 18:1 20:16 21:22 22:4 23:2021
400 0:29 1:0.4 2:55.00000000000001 5:1 10:1 12:1185732 18:1 20:16 21:22 22:8 23:2021
575 0:11 1:0.4 2:25.00000000000001 7:1 10:1 12:1185732 18:1 20:32 21:13 22:1 23:2021
225 0:29 1:0.35 2:45 3:1 10:1 12:1185732 18:1 20:16 21:21 22:3 23:2021
575 0:29 1:0.4 2:50 4:1 10:1 12:1185732 18:1 20:16 21:22 22:8 23:2021
56 0:29 1:0.55 2:28 7:1 10:1 12:1185732 18:1 20:16 21:22 22:6 23:2021
65 0:29 1:0.53 2:33 7:1 10:1 12:1185732 18:1 20:16 21:23 22:9 23:2021
54 0:29 1:0.47 2:48 10:1 12:1185732 18:1 20:16 21:22 22:2 23:2021
126 0:29 1:0.55 2:53 4:1 10:1 12:1185732 18:1 20:16 21:22 22:10 23:2021
125 0:29 1:0.35 2:50 10:1 12:1185732 18:1 20:16 21:22 22:4 23:2021
194 0:11 1:0.52 2:32 4:1 10:1 12:1185732 18:1 20:32 21:13 22:1 23:2021
425 0:29 1:0.4 2:55.00000000000001 5:1 10:1 12:1185732 18:1 20:16 21:21 22:7 23:2021
150 0:29 1:0.4 2:45 6:1 10:1 12:1185732 18:1 20:16 21:22 22:10 23:2021
450 0:29 1:0.4 2:54.99999999999999 4:1 10:1 12:1185732 18:1 20:16 21:22 22:10 23:2021
225 0:11 1:0.65 2:69 5:1 10:1 12:1185732 18:1 20:32 21:2 22:12 23:2021
125 0:29 1:0.4 2:40 6:1 10:1 12:1185732 18:1 20:16 21:23 22:5 23:2021
80 0:29 1:0.54 2:36 7:1 10:1 12:1185732 18:1 20:16 21:22 22:8 23:2021
58 0:29 1:0.47 2:43 10:1 12:1185732 18:1 20:16 21:23 22:9 23:2021
225 0:29 1:0.4 2:35 7:1 10:1 12:1185732 18:1 20:16 21:23 22:9 23:2021
115 0:29 1:0.54 2:50 5:1 10:1 12:1185732 18:1 20:16 21:21 22:7 23:2021
49 0:29 1:0.48 2:41 3:1 10:1 12:1185732 18:1 20:16 21:22 22:4 23:2021
425 0:11 1:0.4 2:30 6:1 10:1 12:1185732 18:1 20:32 21:13 22:1 23:2021
58 0:29 1:0.52 2:38 7:1 10:1 12:1185732 18:1 20:16 21:23 22:5 23:2021
675 0:11 1:0.4 2:60.00000000000001 6:1 10:1 12:1185732 18:1 20:32 21:2 22:12 23:2021
150 0:29 1:0.35 2:50 10:1 12:1185732 18:1 20:16 21:23 22:5 23:2021
123 0:11 1:0.52 2:29 6:1 10:1 12:1185732 18:1 20:32 21:13 22:1 23:2021
175 0:29 1:0.4 2:45 7:1 10:1 12:1185732 18:1 20:16 21:22 22:10 23:2021
44 0:29 1:0.46 2:52 10:1 12:1185732 18:1 20:16 21:21 22:3 23:2021
83 0:29 1:0.5 2:41 3:1 10:1 12:1185732 18:1 20:16 21:22 22:10 23:2021
520 0:29 1:0.4 2:50 4:1 10:1 12:1185732 18:1 20:16 21:23 22:5 23:2021
300 0:29 1:0.4 2:40 5:1 10:1 12:1185732 18:1 20:16 21:22 22:2 23:2021
275 0:29 1:0.4 2:40 7:1 10:1 12:1185732 18:1 20:16 21:21 22:7 23:2021
69 0:29 1:0.52 2:38 7:1 10:1 12:1185732 18:1 20:16 21:21 22:7 23:2021
128 0:11 1:0.5 2:44 10:1 12:1185732 18:1 20:32 21:13 22:1 23:2021
34 0:29 1:0.54 2:34 6:1 10:1 12:1185732 18:1 20:16 21:22 22:2 23:2021
575 0:11 1:0.5 2:35 5:1 10:1 12:1185732 18:1 20:32 21:13 22:1 23:2021
169 0:11 1:0.49 2:65 10:1 12:1185732 18:1 20:32 21:2 22:12 23:2021
47 0:29 1:0.54 2:43 7:1 10:1 12:1185732 18:1 20:16 21:22 22:10 23:2021
275 0:29 1:0.4 2:55.00000000000001 5:1 10:1 12:1185732 18:1 20:16 21:23 22:5 23:2021
525 0:29 1:0.4 2:50 4:1 10:1 12:1185732 18:1 20:16 21:23 22:9 23:2021
175 0:29 1:0.4 2:40 7:1 10:1 12:1185732 18:1 20:16 21:22 22:4 23:2021
156 0:29 1:0.51 2:49 4:1 10:1 12:1185732 18:1 20:16 21:23 22:5 23:2021
275 0:29 1:0.35 2:35.00000000000001 3:1 10:1 12:1185732 18:1 20:16 21:22 22:6 23:2021
825 0:11 1:0.4 2:35 4:1 10:1 12:1185732 18:1 20:32 21:11 22:2 23:2021
150 0:29 1:0.35 2:54.99999999999999 10:1 12:1185732 18:1 20:16 21:21 22:3 23:2021
350 0:29 1:0.35 2:45.00000000000001 3:1 10:1 12:1185732 18:1 20:16 21:22 22:8 23:2021
73 0:29 1:0.5 2:34 7:1 10:1 12:1185732 18:1 20:16 21:21 22:3 23:2021
196 0:11 1:0.54 2:55 6:1 10:1 12:1185732 18:1 20:32 21:2 22:12 23:2021
275 0:29 1:0.35 2:45 3:1 10:1 12:1185732 18:1 20:16 21:22 22:10 23:2021
29 0:29 1:0.5 2:42 6:1 10:1 12:1185732 18:1 20:16 21:22 22:4 23:2021
150 0:11 1:0.5 2:33 3:1 10:1 12:1185732 18:1 20:32 21:13 22:1 23:2021
575 0:11 1:0.35 2:35 3:1 10:1 12:1185732 18:1 20:32 21:13 22:1 23:2021
275 0:29 1:0.35 2:40 3:1 10:1 12:1185732 18:1 20:16 21:22 22:11 23:2021
72 0:29 1:0.47 2:39 3:1 10:1 12:1185732 18:1 20:16 21:22 22:11 23:2021
350 0:29 1:0.35 2:45.00000000000001 3:1 10:1 12:1185732 18:1 20:16 21:21 22:7 23:2021
175 0:29 1:0.35 2:45 3:1 10:1 12:1185732 18:1 20:16 21:22 22:4 23:2021
95 0:29 1:0.49 2:44 3:1 10:1 12:1185732 18:1 20:16 21:21 22:7 23:2021
123 0:29 1:0.52 2:48 4:1 10:1 12:1185732 18:1 20:16 21:22 22:11 23:2021
525 0:29 1:0.4 2:40 4:1 10:1 12:1185732 18:1 20:16 21:22 22:6 23:2021
325 0:29 1:0.35 2:45.00000000000001 3:1 10:1 12:1185732 18:1 20:16 21:23 22:9 23:2021
775 0:11 1:0.4 2:35 4:1 10:1 12:1185732 18:1 20:32 21:13 22:1 23:2021
42 0:29 1:0.52 2:41 6:1 10:1 12:1185732 18:1 20:16 21:22 22:10 23:2021
475 0:29 1:0.4 2:45 4:1 10:1 12:1185732 18:1 20:16 21:22 22:4 23:2021
75 0:29 1:0.5 2:38 6:1 10:1 12:1185732 18:1 20:16 21:22 22:8 23:2021
59 0:29 1:0.49 2:41 3:1 10:1 12:1185732 18:1 20:16 21:21 22:3 23:2021
150 0:29 1:0.35 2:54.99999999999999 10:1 12:1185732 18:1 20:16 21:22 22:10 23:2021
725 0:11 1:0.4 2:60.00000000000001 7:1 10:1 12:1185732 18:1 20:32 21:2 22:12 23:2021
675 0:11 1:0.35 2:70 10:1 12:1185732 18:1 20:32 21:2 22:12 23:2021
119 0:29 1:0.55 2:41 4:1 10:1 12:1185732 18:1 20:16 21:22 22:4 23:2021
63 0:29 1:0.54 2:37 6:1 10:1 12:1185732 18:1 20:16 21:21 22:7 23:2021
41 0:29 1:0.49 2:53 10:1 12:1185732 18:1 20:16 21:22 22:10 23:2021
275 0:29 1:0.4 2:54.99999999999999 5:1 10:1 12:1185732 18:1 20:16 21:22 22:10 23:2021
91 0:29 1:0.47 2:41 3:1 10:1 12:1185732 18:1 20:16 21:22 22:8 23:2021
