140 0:7 1:0.27 2:27 5:1 11:1 12:1128299 13:1 19:1 20:11 21:23 22:1 23:2021
95 0:41 1:0.5 2:46 6:1 11:1 12:1128299 13:1 18:1 20:2 21:23 22:6 23:2021
223 0:7 1:0.4399999999999999 2:47 7:1 11:1 12:1197831 13:1 19:1 20:11 21:4 22:12 23:2021
650 0:21 1:0.2 2:85.00000000000001 3:1 11:1 12:1128299 13:1 19:1 20:10 21:9 22:7 23:2021
500 0:41 1:0.4 2:50.00000000000001 3:1 11:1 12:1128299 13:1 18:1 20:2 21:23 22:10 23:2021
125 0:41 1:0.3 2:55.00000000000001 11:1 12:1128299 13:1 18:1 20:2 21:22 22:3 23:2021
375 0:41 1:0.3 2:55.00000000000001 11:1 12:1128299 13:1 18:1 20:2 21:24 22:9 23:2021
85 0:21 1:0.55 2:50 5:1 11:1 12:1128299 13:1 18:1 20:10 21:9 22:3 23:2021
275 0:28 1:0.35 2:35 7:1 11:1 12:1185732 13:1 19:1 20:4 21:2 22:6 23:2021
128 0:41 1:0.45 2:43 7:1 11:1 12:1128299 13:1 18:1 20:2 21:24 22:9 23:2021
375 0:41 1:0.25 2:70 5:1 11:1 12:1128299 13:1 18:1 20:2 21:23 22:8 23:2021
39 0:41 1:0.32 2:41 11:1 12:1128299 13:1 19:1 20:2 21:22 22:3 23:2021
113 0:41 1:0.38 2:36 6:1 11:1 12:1128299 13:1 19:1 20:2 21:22 22:7 23:2021
425 0:41 1:0.25 2:70 5:1 11:1 12:1128299 13:1 18:1 20:2 21:22 22:7 23:2021
147 0:41 1:0.52 2:46 3:1 11:1 12:1128299 13:1 18:1 20:2 21:23 22:11 23:2021
325 0:41 1:0.25 2:50 5:1 11:1 12:1128299 13:1 18:1 20:2 21:22 22:3 23:2021
106 0:7 1:0.51 2:37 3:1 11:1 12:1128299 13:1 18:1 20:11 21:23 22:1 23:2021
350 0:12 1:0.35 2:30 4:1 11:1 12:1128299 13:1 20:49 21:24 22:1 23:2021
85 0:41 1:0.38 2:56 5:1 11:1 12:1128299 13:1 18:1 20:2 21:23 22:10 23:2021
425 0:7 1:0.4 2:40 3:1 11:1 12:1128299 13:1 18:1 20:11 21:23 22:1 23:2021
500 0:21 1:0.25 2:60 4:1 11:1 12:1128299 13:1 19:1 20:10 21:10 22:4 23:2021
196 0:7 1:0.6900000000000001 2:60 5:1 11:1 12:1197831 13:1 18:1 20:11 21:4 22:12 23:2021
77 0:28 1:0.46 2:41 3:1 11:1 12:1185732 13:1 18:1 20:4 21:1 22:6 23:2021
500 0:41 1:0.35 2:50 4:1 11:1 12:1128299 13:1 18:1 20:2 21:23 22:4 23:2021
325 0:41 1:0.35 2:45.00000000000001 7:1 11:1 12:1128299 13:1 18:1 20:2 21:23 22:10 23:2021
99 0:41 1:0.36 2:44 11:1 12:1128299 13:1 19:1 20:2 21:23 22:11 23:2021
87 0:41 1:0.41 2:53 11:1 12:1128299 13:1 18:1 20:2 21:23 22:11 23:2021
116 0:41 1:0.42 2:36 3:1 11:1 12:1128299 13:1 19:1 20:2 21:24 22:5 23:2021
105 0:41 1:0.44 2:54 11:1 12:1128299 13:1 18:1 20:2 21:24 22:9 23:2021
91 0:21 1:0.38 2:60 7:1 11:1 12:1128299 13:1 18:1 20:10 21:10 22:4 23:2021
73 0:21 1:0.35 2:48 6:1 11:1 12:1128299 13:1 18:1 20:10 21:10 22:4 23:2021
240 0:7 1:0.45 2:40 4:1 11:1 12:1197831 13:1 19:1 20:11 21:4 22:12 23:2021
300 0:21 1:0.2 2:65 3:1 11:1 12:1128299 13:1 19:1 20:10 21:10 22:4 23:2021
63 0:7 1:0.45 2:42 11:1 12:1128299 13:1 18:1 20:11 21:23 22:1 23:2021
182 0:21 1:0.34 2:81 3:1 11:1 12:1128299 13:1 18:1 20:10 21:9 22:7 23:2021
107 0:41 1:0.27 2:37 5:1 11:1 12:1128299 13:1 19:1 20:2 21:22 22:3 23:2021
130 0:21 1:0.4 2:73 6:1 11:1 12:1128299 13:1 18:1 20:10 21:9 22:7 23:2021
113 0:41 1:0.49 2:54 7:1 11:1 12:1128299 13:1 18:1 20:2 21:23 22:8 23:2021
138 0:41 1:0.52 2:51 3:1 11:1 12:1128299 13:1 18:1 20:2 21:23 22:6 23:2021
156 0:41 1:0.49 2:48 4:1 11:1 12:1128299 13:1 18:1 20:2 21:23 22:6 23:2021
162 0:7 1:0.37 2:21 4:1 11:1 12:1128299 13:1 19:1 20:11 21:23 22:2 23:2021
131 0:7 1:0.55 2:34 5:1 11:1 12:1197831 13:1 18:1 20:11 21:4 22:2 23:2021
111 0:41 1:0.37 2:31 7:1 11:1 12:1128299 13:1 19:1 20:2 21:23 22:10 23:2021
600 0:21 1:0.25 2:70 7:1 11:1 12:1128299 13:1 19:1 20:10 21:10 22:8 23:2021
167 0:41 1:0.49 2:41 4:1 11:1 12:1128299 13:1 18:1 20:2 21:24 22:9 23:2021
250 0:7 1:0.25 2:40 11:1 12:1197831 13:1 18:1 20:11 21:4 22:2 23:2021
91 0:12 1:0.46 2:29 4:1 11:1 12:1128299 13:1 18:1 20:49 21:24 22:1 23:2021
102 0:21 1:0.55 2:44 5:1 11:1 12:1128299 13:1 18:1 20:10 21:10 22:2 23:2021
128 0:41 1:0.33 2:41 11:1 12:1128299 13:1 19:1 20:2 21:24 22:9 23:2021
42 0:21 1:0.27 2:52 11:1 12:1128299 13:1 18:1 20:10 21:10 22:4 23:2021
400 0:41 1:0.3 2:65 11:1 12:1128299 13:1 18:1 20:2 21:23 22:8 23:2021
400 0:41 1:0.35 2:55.00000000000001 6:1 11:1 12:1128299 13:1 18:1 20:2 21:23 22:8 23:2021
450 0:7 1:0.45 2:35 5:1 11:1 12:1197831 13:1 18:1 20:11 21:4 22:2 23:2021
275 0:41 1:0.3 2:55.00000000000001 11:1 12:1128299 13:1 18:1 20:2 21:23 22:10 23:2021
221 0:47 1:0.49 2:41 3:1 11:1 12:1185732 13:1 18:1 20:46 21:7 22:8 23:2020
300 0:41 1:0.4 2:55.00000000000001 3:1 11:1 12:1128299 13:1 18:1 20:2 21:23 22:4 23:2021
230 0:47 1:0.39 2:34 7:1 11:1 12:1185732 13:1 18:1 20:46 21:8 22:8 23:2020
210 0:21 1:0.37 2:79 4:1 11:1 12:1128299 13:1 18:1 20:10 21:10 22:8 23:2021
102 0:41 1:0.5 2:50 7:1 11:1 12:1128299 13:1 18:1 20:2 21:23 22:4 23:2021
350 0:7 1:0.45 2:35 6:1 11:1 12:1197831 13:1 18:1 20:11 21:6 22:3 23:2021
150 0:41 1:0.3 2:55.00000000000001 11:1 12:1128299 13:1 18:1 20:2 21:23 22:4 23:2021
169 0:21 1:0.52 2:97 5:1 11:1 12:1128299 13:1 18:1 20:10 21:10 22:6 23:2021
475 0:7 1:0.35 2:54.99999999999999 11:1 12:1197831 13:1 18:1 20:11 21:4 22:12 23:2021
475 0:41 1:0.4 2:55.00000000000001 3:1 11:1 12:1128299 13:1 18:1 20:2 21:23 22:6 23:2021
500 0:41 1:0.35 2:45.00000000000001 4:1 11:1 12:1128299 13:1 18:1 20:2 21:23 22:11 23:2021
113 0:41 1:0.54 2:53 3:1 11:1 12:1128299 13:1 18:1 20:2 21:24 22:5 23:2021
525 0:41 1:0.35 2:50 4:1 11:1 12:1128299 13:1 18:1 20:2 21:24 22:5 23:2021
140 0:7 1:0.43 2:30 3:1 11:1 12:1128299 13:1 19:1 20:11 21:23 22:1 23:2021
325 0:21 1:0.4 2:70 5:1 11:1 12:1128299 13:1 19:1 20:10 21:10 22:4 23:2021
105 0:7 1:0.5800000000000001 2:33 6:1 11:1 12:1197831 13:1 18:1 20:11 21:6 22:3 23:2021
162 0:7 1:0.55 2:33 6:1 11:1 12:1197831 13:1 19:1 20:11 21:8 22:8 23:2021
147 0:7 1:0.41 2:43 11:1 12:1197831 13:1 19:1 20:11 21:4 22:12 23:2021
208 0:7 1:0.6900000000000001 2:64 5:1 11:1 12:1197831 13:1 18:1 20:11 21:6 22:7 23:2021
145 0:12 1:0.45 2:54 11:1 12:1185732 13:1 18:1 20:49 21:10 22:12 23:2021
350 0:21 1:0.2 2:54.99999999999999 3:1 11:1 12:1128299 13:1 19:1 20:10 21:9 22:3 23:2021
225 0:41 1:0.35 2:50 6:1 11:1 12:1128299 13:1 18:1 20:2 21:22 22:3 23:2021
225 0:7 1:0.3 2:45.00000000000001 11:1 12:1128299 13:1 18:1 20:11 21:23 22:1 23:2021
113 0:7 1:0.49 2:28 7:1 11:1 12:1197831 13:1 18:1 20:11 21:6 22:3 23:2021
94 0:21 1:0.5 2:66 5:1 11:1 12:1128299 13:1 18:1 20:10 21:10 22:4 23:2021
450 0:41 1:0.35 2:55.00000000000001 7:1 11:1 12:1128299 13:1 18:1 20:2 21:23 22:8 23:2021
350 0:12 1:0.35 2:40 7:1 11:1 12:1128299 13:1 20:49 21:24 22:2 23:2021
116 0:41 1:0.41 2:59 11:1 12:1128299 13:1 18:1 20:2 21:23 22:8 23:2021
600 0:21 1:0.25 2:75 7:1 11:1 12:1128299 13:1 19:1 20:10 21:10 22:6 23:2021
180 0:21 1:0.36 2:71 7:1 11:1 12:1128299 13:1 18:1 20:10 21:10 22:6 23:2021
138 0:41 1:0.45 2:51 7:1 11:1 12:1128299 13:1 18:1 20:2 21:23 22:6 23:2021
68 0:41 1:0.37 2:38 6:1 11:1 12:1128299 13:1 19:1 20:2 21:22 22:3 23:2021
47 0:41 1:0.34 2:43 11:1 12:1128299 13:1 19:1 20:2 21:23 22:4 23:2021
70 0:7 1:0.35 2:39 11:1 12:1197831 13:1 18:1 20:11 21:4 22:2 23:2021
116 0:41 1:0.42 2:33 6:1 11:1 12:1128299 13:1 19:1 20:2 21:23 22:11 23:2021
300 0:41 1:0.35 2:50 6:1 11:1 12:1128299 13:1 18:1 20:2 21:24 22:5 23:2021
210 0:7 1:0.5499999999999999 2:46 4:1 11:1 12:1197831 13:1 18:1 20:11 21:8 22:8 23:2021
250 0:7 1:0.53 2:46 7:1 11:1 12:1197831 13:1 18:1 20:11 21:8 22:8 23:2021
216 0:41 1:0.37 2:40 4:1 11:1 12:1128299 13:1 19:1 20:2 21:22 22:7 23:2021
225 0:41 1:0.35 2:40 6:1 11:1 12:1128299 13:1 18:1 20:2 21:23 22:2 23:2021
69 0:41 1:0.4 2:53 11:1 12:1128299 13:1 18:1 20:2 21:23 22:10 23:2021
425 0:7 1:0.35 2:40 7:1 11:1 12:1128299 13:1 18:1 20:11 21:23 22:1 23:2021
128 0:7 1:0.43 2:28 3:1 11:1 12:1128299 13:1 19:1 20:11 21:23 22:2 23:2021
51 0:41 1:0.37 2:36 11:1 12:1128299 13:1 19:1 20:2 21:23 22:2 23:2021
158 0:21 1:0.37 2:51 4:1 11:1 12:1128299 13:1 18:1 20:10 21:11 22:5 23:2021
123 0:2 1:0.54 2:42 5:1 11:1 12:1128299 13:1 18:1 20:1 21:10 22:1 23:2021
475 0:7 1:0.35 2:29.99999999999999 4:1 11:1 12:1128299 13:1 18:1 20:11 21:23 22:2 23:2021
375 0:41 1:0.35 2:45.00000000000001 6:1 11:1 12:1128299 13:1 18:1 20:2 21:24 22:9 23:2021
88 0:7 1:0.37 2:30 6:1 11:1 12:1128299 13:1 19:1 20:11 21:23 22:1 23:2021
135 0:7 1:0.38 2:20 7:1 11:1 12:1197831 13:1 19:1 20:11 21:6 22:3 23:2021
56 0:2 1:0.35 2:43 6:1 11:1 12:1128299 13:1 18:1 20:1 21:10 22:1 23:2021
500 0:12 1:0.3 2:55.00000000000001 11:1 12:1185732 13:1 20:49 21:10 22:12 23:2021
78 0:41 1:0.4 2:40 6:1 11:1 12:1128299 13:1 19:1 20:2 21:23 22:4 23:2021
142 0:7 1:0.65 2:59 6:1 11:1 12:1197831 13:1 18:1 20:11 21:4 22:12 23:2021
350 0:41 1:0.4 2:50 3:1 11:1 12:1128299 13:1 18:1 20:2 21:22 22:3 23:2021
109 0:2 1:0.33 2:43 3:1 11:1 12:1128299 13:1 18:1 20:1 21:10 22:1 23:2021
133 0:7 1:0.49 2:50 11:1 12:1197831 13:1 18:1 20:11 21:4 22:12 23:2021
500 0:21 1:0.25 2:80 6:1 11:1 12:1128299 13:1 19:1 20:10 21:9 22:7 23:2021
350 0:41 1:0.35 2:50 7:1 11:1 12:1128299 13:1 18:1 20:2 21:22 22:3 23:2021
156 0:21 1:0.31 2:72 3:1 11:1 12:1128299 13:1 18:1 20:10 21:10 22:6 23:2021
105 0:41 1:0.46 2:44 7:1 11:1 12:1128299 13:1 18:1 20:2 21:23 22:11 23:2021
130 0:41 1:0.45 2:48 4:1 11:1 12:1128299 13:1 18:1 20:2 21:23 22:4 23:2021
46 0:21 1:0.28 2:55 11:1 12:1128299 13:1 18:1 20:10 21:11 22:5 23:2021
300 0:41 1:0.3 2:55.00000000000001 11:1 12:1128299 13:1 18:1 20:2 21:23 22:11 23:2021
350 0:21 1:0.4 2:45 5:1 11:1 12:1128299 13:1 19:1 20:10 21:10 22:2 23:2021
675 0:41 1:0.35 2:50 4:1 11:1 12:1128299 13:1 18:1 20:2 21:22 22:7 23:2021
375 0:41 1:0.4 2:55.00000000000001 3:1 11:1 12:1128299 13:1 18:1 20:2 21:24 22:5 23:2021
90 0:41 1:0.49 2:43 6:1 11:1 12:1128299 13:1 18:1 20:2 21:23 22:10 23:2021
925 0:7 1:0.4 2:50 7:1 11:1 12:1197831 13:1 18:1 20:11 21:8 22:8 23:2021
750 0:21 1:0.25 2:85.00000000000001 4:1 11:1 12:1128299 13:1 19:1 20:10 21:10 22:8 23:2021
305 0:7 1:0.4299999999999999 2:39 7:1 11:1 12:1197831 13:1 19:1 20:11 21:8 22:8 23:2021
233 0:7 1:0.54 2:54 4:1 11:1 12:1197831 13:1 18:1 20:11 21:4 22:12 23:2021
350 0:41 1:0.35 2:45.00000000000001 6:1 11:1 12:1128299 13:1 18:1 20:2 21:23 22:11 23:2021
525 0:41 1:0.4 2:50.00000000000001 3:1 11:1 12:1128299 13:1 18:1 20:2 21:23 22:11 23:2021
218 0:21 1:0.34 2:71 3:1 11:1 12:1128299 13:1 18:1 20:10 21:10 22:8 23:2021
111 0:41 1:0.37 2:55 5:1 11:1 12:1128299 13:1 18:1 20:2 21:23 22:11 23:2021
250 0:41 1:0.35 2:50 6:1 11:1 12:1128299 13:1 18:1 20:2 21:23 22:4 23:2021
68 0:41 1:0.46 2:47 6:1 11:1 12:1128299 13:1 18:1 20:2 21:22 22:3 23:2021
80 0:21 1:0.4 2:52 6:1 11:1 12:1128299 13:1 18:1 20:10 21:11 22:5 23:2021
112 0:41 1:0.49 2:52 6:1 11:1 12:1128299 13:1 18:1 20:2 21:23 22:8 23:2021
128 0:41 1:0.43 2:52 11:1 12:1128299 13:1 18:1 20:2 21:22 22:7 23:2021
375 0:41 1:0.35 2:50 6:1 11:1 12:1128299 13:1 18:1 20:2 21:22 22:7 23:2021
225 0:21 1:0.25 2:45 6:1 11:1 12:1128299 13:1 19:1 20:10 21:10 22:2 23:2021
131 0:41 1:0.39 2:69 5:1 11:1 12:1128299 13:1 18:1 20:2 21:23 22:6 23:2021
156 0:7 1:0.45 2:28 4:1 11:1 12:1197831 13:1 18:1 20:11 21:6 22:3 23:2021
116 0:41 1:0.27 2:31 5:1 11:1 12:1128299 13:1 19:1 20:2 21:23 22:2 23:2021
143 0:2 1:0.36 2:33 4:1 11:1 12:1128299 13:1 18:1 20:1 21:10 22:2 23:2021
195 0:7 1:0.53 2:53 3:1 11:1 12:1197831 13:1 18:1 20:11 21:8 22:8 23:2021
400 0:12 1:0.3 2:40 5:1 11:1 12:1128299 13:1 20:49 21:24 22:1 23:2021
201 0:41 1:0.47 2:34 3:1 11:1 12:1128299 13:1 19:1 20:2 21:24 22:9 23:2021
38 0:21 1:0.3 2:47 11:1 12:1128299 13:1 18:1 20:10 21:10 22:2 23:2021
135 0:41 1:0.48 2:41 4:1 11:1 12:1128299 13:1 18:1 20:2 21:23 22:10 23:2021
145 0:41 1:0.3 2:46 5:1 11:1 12:1128299 13:1 19:1 20:2 21:22 22:7 23:2021
475 0:41 1:0.35 2:55.00000000000001 7:1 11:1 12:1128299 13:1 18:1 20:2 21:23 22:6 23:2021
725 0:21 1:0.2 2:75.00000000000001 3:1 11:1 12:1128299 13:1 19:1 20:10 21:10 22:8 23:2021
350 0:12 1:0.35 2:40 7:1 11:1 12:1128299 13:1 20:49 21:24 22:1 23:2021
775 0:7 1:0.4 2:54.99999999999999 3:1 11:1 12:1197831 13:1 18:1 20:11 21:4 22:12 23:2021
196 0:41 1:0.49 2:49 4:1 11:1 12:1128299 13:1 18:1 20:2 21:22 22:7 23:2021
131 0:41 1:0.28 2:48 5:1 11:1 12:1128299 13:1 19:1 20:2 21:23 22:8 23:2021
450 0:12 1:0.35 2:30 4:1 11:1 12:1128299 13:1 20:49 21:24 22:2 23:2021
150 0:41 1:0.38 2:31 4:1 11:1 12:1128299 13:1 19:1 20:2 21:23 22:11 23:2021
101 0:41 1:0.45 2:48 6:1 11:1 12:1128299 13:1 18:1 20:2 21:22 22:7 23:2021
161 0:41 1:0.53 2:45 3:1 11:1 12:1128299 13:1 18:1 20:2 21:24 22:9 23:2021
575 0:41 1:0.4 2:60.00000000000001 3:1 11:1 12:1128299 13:1 18:1 20:2 21:23 22:8 23:2021
163 0:41 1:0.46 2:40 3:1 11:1 12:1128299 13:1 19:1 20:2 21:22 22:7 23:2021
58 0:41 1:0.41 2:51 11:1 12:1128299 13:1 18:1 20:2 21:24 22:5 23:2021
575 0:41 1:0.4 2:50.00000000000001 3:1 11:1 12:1128299 13:1 18:1 20:2 21:24 22:9 23:2021
91 0:41 1:0.48 2:44 7:1 11:1 12:1128299 13:1 18:1 20:2 21:23 22:10 23:2021
90 0:41 1:0.5 2:53 3:1 11:1 12:1128299 13:1 18:1 20:2 21:23 22:4 23:2021
375 0:2 1:0.25 2:45 7:1 11:1 12:1128299 13:1 19:1 20:1 21:10 22:2 23:2021
90 0:41 1:0.44 2:37 3:1 11:1 12:1128299 13:1 19:1 20:2 21:23 22:4 23:2021
550 0:12 1:0.35 2:45.00000000000001 7:1 11:1 12:1185732 13:1 20:49 21:10 22:12 23:2021
135 0:7 1:0.52 2:26 5:1 11:1 12:1197831 13:1 19:1 20:11 21:4 22:2 23:2021
625 0:41 1:0.35 2:55.00000000000001 4:1 11:1 12:1128299 13:1 18:1 20:2 21:23 22:8 23:2021
475 0:21 1:0.25 2:75 6:1 11:1 12:1128299 13:1 19:1 20:10 21:10 22:6 23:2021
425 0:41 1:0.35 2:45.00000000000001 7:1 11:1 12:1128299 13:1 18:1 20:2 21:24 22:9 23:2021
375 0:21 1:0.25 2:59.99999999999999 7:1 11:1 12:1128299 13:1 19:1 20:10 21:9 22:3 23:2021
91 0:21 1:0.31 2:54 3:1 11:1 12:1128299 13:1 18:1 20:10 21:9 22:3 23:2021
130 0:21 1:0.36 2:59 4:1 11:1 12:1128299 13:1 18:1 20:10 21:10 22:4 23:2021
600 0:12 1:0.25 2:60 5:1 11:1 12:1185732 13:1 20:49 21:10 22:12 23:2021
88 0:21 1:0.3 2:83 11:1 12:1128299 13:1 18:1 20:10 21:10 22:6 23:2021
44 0:41 1:0.44 2:42 11:1 12:1128299 13:1 18:1 20:2 21:23 22:2 23:2021
145 0:41 1:0.47 2:37 4:1 11:1 12:1128299 13:1 18:1 20:2 21:22 22:3 23:2021
375 0:2 1:0.25 2:35 4:1 11:1 12:1128299 13:1 19:1 20:1 21:10 22:1 23:2021
625 0:41 1:0.35 2:45.00000000000001 4:1 11:1 12:1128299 13:1 18:1 20:2 21:22 22:12 23:2021
525 0:7 1:0.5 2:60 6:1 11:1 12:1197831 13:1 18:1 20:11 21:4 22:12 23:2021
34 0:28 1:0.52 2:37 6:1 11:1 12:1185732 13:1 18:1 20:4 21:3 22:6 23:2021
88 0:12 1:0.45 2:39 7:1 11:1 12:1128299 13:1 18:1 20:49 21:24 22:2 23:2021
163 0:41 1:0.5 2:50 4:1 11:1 12:1128299 13:1 18:1 20:2 21:23 22:8 23:2021
119 0:7 1:0.48 2:29 4:1 11:1 12:1128299 13:1 18:1 20:11 21:23 22:1 23:2021
375 0:2 1:0.2 2:45 3:1 11:1 12:1128299 13:1 19:1 20:1 21:10 22:2 23:2021
475 0:21 1:0.4 2:75 5:1 11:1 12:1128299 13:1 19:1 20:10 21:11 22:5 23:2021
194 0:41 1:0.4 2:41 4:1 11:1 12:1128299 13:1 19:1 20:2 21:23 22:8 23:2021
140 0:41 1:0.28 2:39 5:1 11:1 12:1128299 13:1 19:1 20:2 21:23 22:11 23:2021
375 0:2 1:0.2 2:45 3:1 11:1 12:1128299 13:1 19:1 20:1 21:10 22:1 23:2021
68 0:41 1:0.42 2:51 11:1 12:1128299 13:1 18:1 20:2 21:23 22:6 23:2021
175 0:41 1:0.54 2:49 3:1 11:1 12:1128299 13:1 18:1 20:2 21:22 22:12 23:2021
109 0:2 1:0.38 2:33 4:1 11:1 12:1128299 13:1 18:1 20:1 21:10 22:1 23:2021
124 0:7 1:0.42 2:28 7:1 11:1 12:1128299 13:1 19:1 20:11 21:23 22:2 23:2021
145 0:41 1:0.53 2:47 3:1 11:1 12:1128299 13:1 18:1 20:2 21:23 22:10 23:2021
375 0:7 1:0.4 2:35 6:1 11:1 12:1197831 13:1 18:1 20:11 21:4 22:2 23:2021
135 0:41 1:0.47 2:42 4:1 11:1 12:1128299 13:1 18:1 20:2 21:23 22:11 23:2021
149 0:21 1:0.3 2:80 11:1 12:1128299 13:1 18:1 20:10 21:9 22:7 23:2021
62 0:41 1:0.33 2:39 11:1 12:1128299 13:1 19:1 20:2 21:24 22:5 23:2021
300 0:41 1:0.35 2:45.00000000000001 6:1 11:1 12:1128299 13:1 18:1 20:2 21:23 22:10 23:2021
68 0:7 1:0.34 2:35 11:1 12:1128299 13:1 19:1 20:11 21:23 22:1 23:2021
525 0:41 1:0.4 2:55.00000000000001 3:1 11:1 12:1128299 13:1 18:1 20:2 21:22 22:7 23:2021
475 0:41 1:0.35 2:55.00000000000001 7:1 11:1 12:1128299 13:1 18:1 20:2 21:22 22:7 23:2021
83 0:28 1:0.47 2:32 7:1 11:1 12:1185732 13:1 18:1 20:4 21:2 22:6 23:2021
625 0:7 1:0.35 2:30 4:1 11:1 12:1197831 13:1 18:1 20:11 21:6 22:3 23:2021
750 0:7 1:0.4 2:50 4:1 11:1 12:1197831 13:1 18:1 20:11 21:8 22:8 23:2021
124 0:41 1:0.29 2:53 5:1 11:1 12:1128299 13:1 19:1 20:2 21:24 22:5 23:2021
525 0:21 1:0.25 2:54.99999999999999 4:1 11:1 12:1128299 13:1 19:1 20:10 21:11 22:5 23:2021
147 0:28 1:0.45 2:36 4:1 11:1 12:1185732 13:1 19:1 20:4 21:31 22:5 23:2021
500 0:12 1:0.35 2:45.00000000000001 6:1 11:1 12:1185732 13:1 20:49 21:10 22:12 23:2021
98 0:2 1:0.32 2:42 3:1 11:1 12:1128299 13:1 18:1 20:1 21:10 22:2 23:2021
124 0:41 1:0.39 2:33 7:1 11:1 12:1128299 13:1 19:1 20:2 21:23 22:11 23:2021
143 0:7 1:0.5 2:29 4:1 11:1 12:1128299 13:1 18:1 20:11 21:23 22:2 23:2021
91 0:12 1:0.45 2:39 7:1 11:1 12:1128299 13:1 18:1 20:49 21:24 22:1 23:2021
88 0:41 1:0.36 2:38 5:1 11:1 12:1128299 13:1 18:1 20:2 21:23 22:2 23:2021
98 0:21 1:0.4 2:56 7:1 11:1 12:1128299 13:1 18:1 20:10 21:11 22:5 23:2021
135 0:21 1:0.4 2:44 4:1 11:1 12:1128299 13:1 18:1 20:10 21:9 22:3 23:2021
425 0:2 1:0.4 2:45 5:1 11:1 12:1128299 13:1 19:1 20:1 21:10 22:1 23:2021
113 0:2 1:0.36 2:41 7:1 11:1 12:1128299 13:1 18:1 20:1 21:10 22:1 23:2021
425 0:41 1:0.25 2:60.00000000000001 5:1 11:1 12:1128299 13:1 18:1 20:2 21:24 22:9 23:2021
175 0:47 1:0.4 2:38 6:1 11:1 12:1185732 13:1 18:1 20:46 21:9 22:8 23:2020
162 0:21 1:0.39 2:64 7:1 11:1 12:1128299 13:1 18:1 20:10 21:10 22:8 23:2021
475 0:2 1:0.25 2:35 4:1 11:1 12:1128299 13:1 19:1 20:1 21:10 22:2 23:2021
143 0:21 1:0.55 2:69 5:1 11:1 12:1128299 13:1 18:1 20:10 21:11 22:5 23:2021
181 0:41 1:0.46 2:44 4:1 11:1 12:1128299 13:1 18:1 20:2 21:22 22:12 23:2021
200 0:41 1:0.3 2:55.00000000000001 11:1 12:1128299 13:1 18:1 20:2 21:24 22:5 23:2021
275 0:28 1:0.35 2:45 3:1 11:1 12:1185732 13:1 19:1 20:4 21:1 22:6 23:2021
94 0:2 1:0.36 2:44 7:1 11:1 12:1128299 13:1 18:1 20:1 21:10 22:2 23:2021
125 0:21 1:0.15 2:60 11:1 12:1128299 13:1 19:1 20:10 21:9 22:3 23:2021
232 0:7 1:0.6100000000000001 2:47 5:1 11:1 12:1197831 13:1 19:1 20:11 21:4 22:12 23:2021
475 0:7 1:0.5 2:50 6:1 11:1 12:1197831 13:1 18:1 20:11 21:8 22:8 23:2021
165 0:12 1:0.46 2:44 7:1 11:1 12:1185732 13:1 18:1 20:49 21:10 22:12 23:2021
175 0:41 1:0.38 2:40 4:1 11:1 12:1128299 13:1 19:1 20:2 21:23 22:4 23:2021
136 0:41 1:0.37 2:45 11:1 12:1128299 13:1 19:1 20:2 21:23 22:8 23:2021
850 0:47 1:0.25 2:35 7:1 11:1 12:1185732 13:1 20:46 21:8 22:8 23:2020
63 0:41 1:0.48 2:38 6:1 11:1 12:1128299 13:1 18:1 20:2 21:23 22:2 23:2021
116 0:12 1:0.45 2:38 5:1 11:1 12:1128299 13:1 18:1 20:49 21:24 22:1 23:2021
107 0:41 1:0.29 2:47 5:1 11:1 12:1128299 13:1 19:1 20:2 21:23 22:10 23:2021
147 0:41 1:0.38 2:41 7:1 11:1 12:1128299 13:1 19:1 20:2 21:23 22:6 23:2021
625 0:41 1:0.35 2:50 4:1 11:1 12:1128299 13:1 18:1 20:2 21:23 22:6 23:2021
94 0:41 1:0.4 2:65 5:1 11:1 12:1128299 13:1 18:1 20:2 21:23 22:8 23:2021
275 0:21 1:0.25 2:54.99999999999999 6:1 11:1 12:1128299 13:1 19:1 20:10 21:11 22:5 23:2021
350 0:41 1:0.35 2:50 6:1 11:1 12:1128299 13:1 18:1 20:2 21:23 22:6 23:2021
36 0:21 1:0.26 2:55 11:1 12:1128299 13:1 18:1 20:10 21:9 22:3 23:2021
113 0:7 1:0.54 2:38 3:1 11:1 12:1128299 13:1 18:1 20:11 21:23 22:2 23:2021
500 0:21 1:0.25 2:45 4:1 11:1 12:1128299 13:1 19:1 20:10 21:9 22:3 23:2021
31 0:41 1:0.41 2:54 11:1 12:1128299 13:1 18:1 20:2 21:22 22:3 23:2021
425 0:41 1:0.3 2:55.00000000000001 11:1 12:1128299 13:1 18:1 20:2 21:22 22:7 23:2021
425 0:7 1:0.35 2:29.99999999999999 4:1 11:1 12:1128299 13:1 18:1 20:11 21:23 22:1 23:2021
850 0:47 1:0.35 2:45 3:1 11:1 12:1185732 13:1 20:46 21:7 22:8 23:2020
210 0:21 1:0.4 2:67 4:1 11:1 12:1128299 13:1 18:1 20:10 21:10 22:6 23:2021
194 0:41 1:0.4 2:35 4:1 11:1 12:1128299 13:1 19:1 20:2 21:22 22:12 23:2021
250 0:21 1:0.25 2:50 6:1 11:1 12:1128299 13:1 19:1 20:10 21:10 22:4 23:2021
111 0:41 1:0.3 2:49 5:1 11:1 12:1128299 13:1 19:1 20:2 21:23 22:4 23:2021
125 0:28 1:0.4 2:40 6:1 11:1 12:1185732 13:1 19:1 20:4 21:3 22:6 23:2021
190 0:41 1:0.42 2:46 3:1 11:1 12:1128299 13:1 19:1 20:2 21:23 22:8 23:2021
625 0:41 1:0.4 2:50.00000000000001 3:1 11:1 12:1128299 13:1 18:1 20:2 21:22 22:12 23:2021
375 0:41 1:0.35 2:45.00000000000001 7:1 11:1 12:1128299 13:1 18:1 20:2 21:23 22:11 23:2021
600 0:21 1:0.2 2:75 3:1 11:1 12:1128299 13:1 19:1 20:10 21:10 22:6 23:2021
123 0:41 1:0.38 2:67 5:1 11:1 12:1128299 13:1 18:1 20:2 21:22 22:7 23:2021
350 0:12 1:0.35 2:40 3:1 11:1 12:1128299 13:1 20:49 21:24 22:1 23:2021
133 0:41 1:0.47 2:51 7:1 11:1 12:1128299 13:1 18:1 20:2 21:22 22:7 23:2021
350 0:21 1:0.25 2:65 7:1 11:1 12:1128299 13:1 19:1 20:10 21:10 22:4 23:2021
132 0:41 1:0.38 2:41 7:1 11:1 12:1128299 13:1 19:1 20:2 21:24 22:5 23:2021
200 0:12 1:0.35 2:40 6:1 11:1 12:1128299 13:1 20:49 21:24 22:1 23:2021
450 0:7 1:0.35 2:30 7:1 11:1 12:1197831 13:1 18:1 20:11 21:6 22:3 23:2021
194 0:41 1:0.39 2:37 4:1 11:1 12:1128299 13:1 19:1 20:2 21:23 22:6 23:2021
325 0:41 1:0.25 2:60.00000000000001 5:1 11:1 12:1128299 13:1 18:1 20:2 21:23 22:10 23:2021
208 0:21 1:0.37 2:74 4:1 11:1 12:1128299 13:1 18:1 20:10 21:9 22:7 23:2021
150 0:21 1:0.15 2:50 11:1 12:1128299 13:1 19:1 20:10 21:10 22:2 23:2021
150 0:12 1:0.4 2:45.00000000000001 11:1 12:1128299 13:1 20:49 21:24 22:1 23:2021
113 0:41 1:0.47 2:41 6:1 11:1 12:1128299 13:1 18:1 20:2 21:24 22:9 23:2021
174 0:12 1:0.36 2:56 5:1 11:1 12:1185732 13:1 18:1 20:49 21:10 22:12 23:2021
675 0:7 1:0.4 2:60 7:1 11:1 12:1197831 13:1 18:1 20:11 21:4 22:12 23:2021
135 0:12 1:0.49 2:44 6:1 11:1 12:1185732 13:1 18:1 20:49 21:10 22:12 23:2021
