238 0:24 1:0.42 2:27 4:1 9:1 12:1185732 13:1 19:1 20:23 21:16 22:5 23:2021
450 0:24 1:0.35 2:60 9:1 12:1185732 13:1 18:1 20:23 21:18 22:6 23:2021
128 0:24 1:0.53 2:14 7:1 9:1 12:1185732 13:1 18:1 20:23 21:16 22:3 23:2021
56 0:15 1:0.51 2:33 7:1 9:1 12:1185732 13:1 18:1 20:42 21:24 22:10 23:2021
150 0:24 1:0.39 2:29 3:1 9:1 12:1185732 13:1 19:1 20:23 21:18 22:6 23:2021
188 0:24 1:0.63 2:60 5:1 9:1 12:1185732 13:1 18:1 20:23 21:18 22:6 23:2021
200 0:34 1:0.32 2:18 4:1 9:1 12:1197831 13:1 19:1 20:17 21:4 22:2 23:2021
225 0:25 1:0.35 2:25 7:1 9:1 12:1185732 13:1 19:1 20:41 21:23 22:5 23:2021
136 0:24 1:0.47 2:11 7:1 9:1 12:1185732 13:1 19:1 20:23 21:16 22:3 23:2021
625 0:34 1:0.3 2:25 4:1 9:1 12:1197831 13:1 18:1 20:17 21:4 22:2 23:2021
475 0:34 1:0.4 2:35 6:1 9:1 12:1197831 13:1 18:1 20:17 21:5 22:1 23:2021
131 0:34 1:0.5800000000000001 2:82 9:1 12:1128299 13:1 18:1 20:17 21:16 22:12 23:2021
19 0:15 1:0.51 2:38 6:1 9:1 12:1185732 13:1 18:1 20:42 21:25 22:10 23:2021
98 0:24 1:0.4 2:30 9:1 12:1185732 13:1 19:1 20:23 21:17 22:4 23:2021
375 0:24 1:0.35 2:25 3:1 9:1 12:1185732 13:1 18:1 20:23 21:17 22:4 23:2021
850 0:24 1:0.4 2:60 4:1 9:1 12:1185732 13:1 18:1 20:23 21:16 22:7 23:2021
325 0:24 1:0.35 2:40 9:1 12:1185732 13:1 18:1 20:23 21:17 22:4 23:2021
23 0:25 1:0.43 2:22 6:1 9:1 12:1185732 13:1 19:1 20:41 21:24 22:5 23:2021
119 0:34 1:0.4 2:28 7:1 9:1 12:1197831 13:1 18:1 20:17 21:5 22:1 23:2021
194 0:24 1:0.55 2:39 4:1 9:1 12:1185732 13:1 18:1 20:23 21:16 22:5 23:2021
135 0:24 1:0.38 2:47 9:1 12:1185732 13:1 19:1 20:23 21:18 22:6 23:2021
108 0:24 1:0.46 2:39 9:1 12:1185732 13:1 18:1 20:23 21:18 22:2 23:2021
400 0:24 1:0.35 2:25 3:1 9:1 12:1185732 13:1 18:1 20:23 21:16 22:3 23:2021
19 0:25 1:0.53 2:27 6:1 9:1 12:1185732 13:1 18:1 20:41 21:24 22:5 23:2021
600 0:34 1:0.4 2:75.00000000000003 7:1 9:1 12:1128299 13:1 18:1 20:17 21:16 22:12 23:2021
125 0:24 1:0.6 2:24 5:1 9:1 12:1185732 13:1 18:1 20:23 21:18 22:2 23:2021
425 0:24 1:0.4 2:15 7:1 9:1 12:1185732 13:1 18:1 20:23 21:16 22:3 23:2021
450 0:24 1:0.35 2:40 3:1 9:1 12:1185732 13:1 18:1 20:23 21:16 22:5 23:2021
289 0:24 1:0.46 2:47 4:1 9:1 12:1185732 13:1 19:1 20:23 21:16 22:7 23:2021
196 0:34 1:0.45 2:28 3:1 9:1 12:1197831 13:1 18:1 20:17 21:5 22:1 23:2021
119 0:25 1:0.5 2:32 4:1 9:1 12:1185732 13:1 18:1 20:41 21:21 22:5 23:2021
111 0:34 1:0.28 2:28 9:1 12:1197831 13:1 19:1 20:17 21:5 22:1 23:2021
128 0:34 1:0.35 2:28 7:1 9:1 12:1197831 13:1 19:1 20:17 21:4 22:2 23:2021
96 0:24 1:0.43 2:16 6:1 9:1 12:1185732 13:1 19:1 20:23 21:17 22:4 23:2021
150 0:24 1:0.5600000000000001 2:35 5:1 9:1 12:1185732 13:1 19:1 20:23 21:16 22:5 23:2021
168 0:34 1:0.48 2:55 9:1 12:1128299 13:1 19:1 20:17 21:16 22:12 23:2021
425 0:24 1:0.4 2:35 7:1 9:1 12:1185732 13:1 18:1 20:23 21:16 22:5 23:2021
625 0:34 1:0.35 2:90.00000000000003 5:1 9:1 12:1128299 13:1 18:1 20:17 21:16 22:12 23:2021
140 0:24 1:0.41 2:28 3:1 9:1 12:1185732 13:1 19:1 20:23 21:16 22:5 23:2021
117 0:24 1:0.5 2:43 6:1 9:1 12:1185732 13:1 18:1 20:23 21:18 22:6 23:2021
75 0:25 1:0.4 2:30 6:1 9:1 12:1185732 13:1 19:1 20:41 21:24 22:5 23:2021
475 0:24 1:0.4 2:45 7:1 9:1 12:1185732 13:1 18:1 20:23 21:18 22:6 23:2021
162 0:34 1:0.37 2:21 7:1 9:1 12:1197831 13:1 19:1 20:17 21:5 22:1 23:2021
425 0:25 1:0.4 2:35 4:1 9:1 12:1185732 13:1 19:1 20:41 21:21 22:5 23:2021
162 0:34 1:0.52 2:69 7:1 9:1 12:1128299 13:1 18:1 20:17 21:16 22:12 23:2021
174 0:34 1:0.42 2:32 3:1 9:1 12:1197831 13:1 18:1 20:17 21:4 22:2 23:2021
425 0:24 1:0.5 2:25 5:1 9:1 12:1185732 13:1 18:1 20:23 21:16 22:3 23:2021
135 0:24 1:0.45 2:57 9:1 12:1185732 13:1 18:1 20:23 21:18 22:6 23:2021
187 0:24 1:0.55 2:23 4:1 9:1 12:1185732 13:1 18:1 20:23 21:16 22:3 23:2021
175 0:34 1:0.45 2:87 5:1 9:1 12:1128299 13:1 18:1 20:17 21:16 22:12 23:2021
85 0:24 1:0.45 2:15 6:1 9:1 12:1185732 13:1 19:1 20:23 21:16 22:3 23:2021
128 0:15 1:0.6200000000000001 2:34 4:1 9:1 12:1185732 13:1 19:1 20:42 21:22 22:10 23:2021
219 0:24 1:0.53 2:51 5:1 9:1 12:1185732 13:1 19:1 20:23 21:18 22:6 23:2021
675 0:34 1:0.3 2:20 4:1 9:1 12:1197831 13:1 18:1 20:17 21:5 22:1 23:2021
375 0:24 1:0.4 2:15 7:1 9:1 12:1185732 13:1 18:1 20:23 21:17 22:4 23:2021
125 0:24 1:0.47 2:37 3:1 9:1 12:1185732 13:1 18:1 20:23 21:18 22:6 23:2021
425 0:34 1:0.3 2:35 7:1 9:1 12:1197831 13:1 18:1 20:17 21:4 22:2 23:2021
225 0:15 1:0.4 2:35 7:1 9:1 12:1185732 13:1 19:1 20:42 21:24 22:10 23:2021
149 0:24 1:0.43 2:34 6:1 9:1 12:1185732 13:1 19:1 20:23 21:18 22:6 23:2021
275 0:24 1:0.4 2:20 6:1 9:1 12:1185732 13:1 18:1 20:23 21:16 22:3 23:2021
85 0:34 1:0.37 2:36 9:1 12:1197831 13:1 18:1 20:17 21:5 22:1 23:2021
192 0:34 1:0.4299999999999999 2:53 7:1 9:1 12:1128299 13:1 19:1 20:17 21:16 22:12 23:2021
70 0:25 1:0.41 2:23 3:1 9:1 12:1185732 13:1 19:1 20:41 21:22 22:5 23:2021
210 0:24 1:0.52 2:44 4:1 9:1 12:1185732 13:1 18:1 20:23 21:18 22:6 23:2021
68 0:15 1:0.47 2:41 3:1 9:1 12:1185732 13:1 18:1 20:42 21:23 22:10 23:2021
500 0:24 1:0.5 2:25 5:1 9:1 12:1185732 13:1 18:1 20:23 21:18 22:2 23:2021
375 0:24 1:0.4 2:35 6:1 9:1 12:1185732 13:1 18:1 20:23 21:16 22:5 23:2021
192 0:34 1:0.47 2:53 6:1 9:1 12:1128299 13:1 19:1 20:17 21:16 22:12 23:2021
136 0:24 1:0.54 2:17 5:1 9:1 12:1185732 13:1 19:1 20:23 21:16 22:3 23:2021
500 0:24 1:0.35 2:40 3:1 9:1 12:1185732 13:1 18:1 20:23 21:18 22:6 23:2021
132 0:24 1:0.4 2:34 9:1 12:1185732 13:1 19:1 20:23 21:16 22:5 23:2021
116 0:24 1:0.4 2:20 3:1 9:1 12:1185732 13:1 19:1 20:23 21:17 22:4 23:2021
600 0:34 1:0.4 2:75.00000000000003 6:1 9:1 12:1128299 13:1 18:1 20:17 21:16 22:12 23:2021
194 0:34 1:0.4 2:59 5:1 9:1 12:1128299 13:1 19:1 20:17 21:16 22:12 23:2021
425 0:15 1:0.55 2:45 4:1 9:1 12:1185732 13:1 19:1 20:42 21:22 22:10 23:2021
400 0:24 1:0.35 2:40 9:1 12:1185732 13:1 18:1 20:23 21:18 22:2 23:2021
119 0:24 1:0.54 2:33 7:1 9:1 12:1185732 13:1 18:1 20:23 21:16 22:5 23:2021
263 0:24 1:0.44 2:31 4:1 9:1 12:1185732 13:1 19:1 20:23 21:18 22:6 23:2021
223 0:24 1:0.44 2:19 4:1 9:1 12:1185732 13:1 19:1 20:23 21:17 22:4 23:2021
111 0:15 1:0.7000000000000001 2:44 4:1 9:1 12:1185732 13:1 18:1 20:42 21:22 22:10 23:2021
166 0:34 1:0.42 2:26 6:1 9:1 12:1197831 13:1 19:1 20:17 21:5 22:1 23:2021
221 0:24 1:0.51 2:58 4:1 9:1 12:1185732 13:1 18:1 20:23 21:16 22:7 23:2021
223 0:24 1:0.46 2:20 4:1 9:1 12:1185732 13:1 19:1 20:23 21:16 22:3 23:2021
475 0:24 1:0.5 2:30 5:1 9:1 12:1185732 13:1 18:1 20:23 21:17 22:4 23:2021
225 0:15 1:0.35 2:45 3:1 9:1 12:1185732 13:1 19:1 20:42 21:23 22:10 23:2021
745 0:24 1:0.4 2:40 4:1 9:1 12:1185732 13:1 18:1 20:23 21:16 22:5 23:2021
675 0:34 1:0.3 2:30 3:1 9:1 12:1197831 13:1 18:1 20:17 21:5 22:1 23:2021
116 0:24 1:0.47 2:41 9:1 12:1185732 13:1 18:1 20:23 21:16 22:5 23:2021
225 0:25 1:0.35 2:35 3:1 9:1 12:1185732 13:1 19:1 20:41 21:22 22:5 23:2021
625 0:24 1:0.5 2:65 5:1 9:1 12:1185732 13:1 18:1 20:23 21:18 22:6 23:2021
81 0:24 1:0.46 2:32 9:1 12:1185732 13:1 18:1 20:23 21:16 22:3 23:2021
56 0:25 1:0.49 2:32 3:1 9:1 12:1185732 13:1 18:1 20:41 21:22 22:5 23:2021
100 0:24 1:0.47 2:24 3:1 9:1 12:1185732 13:1 18:1 20:23 21:16 22:3 23:2021
124 0:24 1:0.45 2:11 7:1 9:1 12:1185732 13:1 19:1 20:23 21:17 22:4 23:2021
750 0:24 1:0.4 2:44.99999999999999 4:1 9:1 12:1185732 13:1 18:1 20:23 21:18 22:6 23:2021
157 0:24 1:0.46 2:33 7:1 9:1 12:1185732 13:1 19:1 20:23 21:18 22:6 23:2021
131 0:24 1:0.45 2:37 3:1 9:1 12:1185732 13:1 18:1 20:23 21:16 22:5 23:2021
116 0:24 1:0.46 2:24 6:1 9:1 12:1185732 13:1 19:1 20:23 21:16 22:5 23:2021
600 0:34 1:0.3 2:35 3:1 9:1 12:1197831 13:1 18:1 20:17 21:4 22:2 23:2021
65 0:25 1:0.48 2:24 7:1 9:1 12:1185732 13:1 18:1 20:41 21:23 22:5 23:2021
182 0:34 1:0.43 2:19 4:1 9:1 12:1197831 13:1 18:1 20:17 21:5 22:1 23:2021
720 0:24 1:0.4 2:25 4:1 9:1 12:1185732 13:1 18:1 20:23 21:16 22:3 23:2021
124 0:24 1:0.61 2:28 5:1 9:1 12:1185732 13:1 18:1 20:23 21:17 22:4 23:2021
163 0:34 1:0.4 2:23 4:1 9:1 12:1197831 13:1 18:1 20:17 21:4 22:2 23:2021
101 0:24 1:0.55 2:14 7:1 9:1 12:1185732 13:1 18:1 20:23 21:17 22:4 23:2021
