180 0:39 1:0.43 2:82 6:1 10:1 12:1128299 16:1 18:1 20:8 21:16 22:7 23:2021
800 0:39 1:0.3 2:75.00000000000001 4:1 10:1 12:1128299 16:1 20:8 21:16 22:12 23:2021
700 0:39 1:0.3 2:80 7:1 10:1 12:1128299 16:1 20:8 21:17 22:8 23:2021
162 0:39 1:0.5900000000000001 2:86 5:1 10:1 12:1128299 16:1 18:1 20:8 21:17 22:11 23:2021
450 0:39 1:0.2 2:95 10:1 12:1128299 16:1 20:8 21:17 22:6 23:2021
200 0:39 1:0.35 2:82 3:1 10:1 12:1128299 16:1 18:1 20:8 21:16 22:12 23:2021
800 0:39 1:0.25 2:85.00000000000001 3:1 10:1 12:1128299 16:1 20:8 21:16 22:12 23:2021
280 0:39 1:0.36 2:58 4:1 10:1 12:1128299 16:1 19:1 20:8 21:16 22:12 23:2021
155 0:39 1:0.42 2:77 6:1 10:1 12:1128299 16:1 18:1 20:8 21:17 22:6 23:2021
104 0:39 1:0.5800000000000001 2:65 5:1 10:1 12:1128299 16:1 18:1 20:8 21:17 22:10 23:2021
189 0:39 1:0.43 2:78 7:1 10:1 12:1128299 16:1 18:1 20:8 21:17 22:8 23:2021
400 0:39 1:0.3 2:60.00000000000001 7:1 10:1 12:1128299 16:1 20:8 21:17 22:10 23:2021
525 0:39 1:0.3 2:55.00000000000001 7:1 10:1 12:1128299 16:1 20:8 21:17 22:11 23:2021
272 0:39 1:0.27 2:60 3:1 10:1 12:1128299 16:1 19:1 20:8 21:17 22:8 23:2021
112 0:39 1:0.41 2:55 7:1 10:1 12:1128299 16:1 18:1 20:8 21:17 22:10 23:2021
166 0:39 1:0.24 2:63 10:1 12:1128299 16:1 19:1 20:8 21:17 22:8 23:2021
400 0:39 1:0.3 2:50 4:1 10:1 12:1128299 16:1 20:8 21:17 22:10 23:2021
143 0:39 1:0.31 2:74 10:1 12:1128299 16:1 18:1 20:8 21:17 22:8 23:2021
140 0:39 1:0.52 2:53 5:1 10:1 12:1128299 16:1 19:1 20:8 21:17 22:10 23:2021
475 0:39 1:0.2 2:80 10:1 12:1128299 16:1 20:8 21:17 22:8 23:2021
171 0:39 1:0.36 2:47 4:1 10:1 12:1128299 16:1 19:1 20:8 21:17 22:4 23:2021
825 0:39 1:0.3 2:64.99999999999999 4:1 10:1 12:1128299 16:1 19:1 20:8 21:17 22:6 23:2021
150 0:39 1:0.43 2:64 6:1 10:1 12:1128299 16:1 18:1 20:8 21:17 22:11 23:2021
198 0:39 1:0.5 2:66 5:1 10:1 12:1128299 16:1 19:1 20:8 21:17 22:11 23:2021
107 0:39 1:0.34 2:39 6:1 10:1 12:1128299 16:1 19:1 20:8 21:18 22:5 23:2021
113 0:39 1:0.41 2:51 6:1 10:1 12:1128299 16:1 18:1 20:8 21:17 22:10 23:2021
120 0:39 1:0.41 2:66 7:1 10:1 12:1128299 16:1 18:1 20:8 21:17 22:4 23:2021
132 0:39 1:0.28 2:46 3:1 10:1 12:1128299 16:1 19:1 20:8 21:18 22:5 23:2021
138 0:39 1:0.42 2:62 4:1 10:1 12:1128299 16:1 18:1 20:8 21:17 22:4 23:2021
600 0:39 1:0.3 2:90 6:1 10:1 12:1128299 16:1 20:8 21:16 22:7 23:2021
189 0:39 1:0.44 2:86 7:1 10:1 12:1128299 16:1 18:1 20:8 21:16 22:7 23:2021
297 0:39 1:0.37 2:68 4:1 10:1 12:1128299 16:1 19:1 20:8 21:16 22:7 23:2021
132 0:39 1:0.36 2:46 7:1 10:1 12:1128299 16:1 19:1 20:8 21:18 22:5 23:2021
188 0:39 1:0.34 2:41 4:1 10:1 12:1128299 16:1 19:1 20:8 21:17 22:11 23:2021
140 0:39 1:0.37 2:39 4:1 10:1 12:1128299 16:1 19:1 20:8 21:17 22:10 23:2021
600 0:39 1:0.45 2:90.00000000000001 5:1 10:1 12:1128299 16:1 20:8 21:17 22:11 23:2021
203 0:39 1:0.35 2:64 3:1 10:1 12:1128299 16:1 18:1 20:8 21:17 22:6 23:2021
196 0:39 1:0.37 2:66 6:1 10:1 12:1128299 16:1 19:1 20:8 21:17 22:6 23:2021
173 0:39 1:0.37 2:44 7:1 10:1 12:1128299 16:1 19:1 20:8 21:17 22:11 23:2021
350 0:39 1:0.25 2:70 3:1 10:1 12:1128299 16:1 19:1 20:8 21:17 22:4 23:2021
550 0:39 1:0.3 2:65 4:1 10:1 12:1128299 16:1 19:1 20:8 21:17 22:4 23:2021
248 0:39 1:0.47 2:74 5:1 10:1 12:1128299 16:1 19:1 20:8 21:17 22:6 23:2021
238 0:39 1:0.34 2:72 7:1 10:1 12:1128299 16:1 19:1 20:8 21:16 22:7 23:2021
350 0:39 1:0.2 2:65 10:1 12:1128299 16:1 20:8 21:17 22:10 23:2021
144 0:39 1:0.38 2:59 3:1 10:1 12:1128299 16:1 18:1 20:8 21:17 22:10 23:2021
173 0:39 1:0.47 2:48 5:1 10:1 12:1128299 16:1 19:1 20:8 21:18 22:5 23:2021
140 0:39 1:0.4 2:58 4:1 10:1 12:1128299 16:1 18:1 20:8 21:18 22:9 23:2021
99 0:39 1:0.49 2:42 5:1 10:1 12:1128299 16:1 19:1 20:8 21:18 22:9 23:2021
650 0:39 1:0.45 2:110 5:1 10:1 12:1128299 16:1 20:8 21:16 22:7 23:2021
170 0:39 1:0.34 2:47 6:1 10:1 12:1128299 16:1 19:1 20:8 21:17 22:11 23:2021
190 0:39 1:0.29 2:43 3:1 10:1 12:1128299 16:1 19:1 20:8 21:17 22:10 23:2021
74 0:39 1:0.31 2:64 10:1 12:1128299 16:1 18:1 20:8 21:18 22:9 23:2021
120 0:39 1:0.35 2:40 6:1 10:1 12:1128299 16:1 19:1 20:8 21:17 22:10 23:2021
325 0:39 1:0.3 2:60 6:1 10:1 12:1128299 16:1 19:1 20:8 21:18 22:5 23:2021
650 0:39 1:0.2 2:95 10:1 12:1128299 16:1 20:8 21:16 22:7 23:2021
208 0:39 1:0.22 2:68 10:1 12:1128299 16:1 19:1 20:8 21:16 22:7 23:2021
65 0:39 1:0.44 2:54 6:1 10:1 12:1128299 16:1 18:1 20:8 21:18 22:9 23:2021
98 0:39 1:0.31 2:59 10:1 12:1128299 16:1 18:1 20:8 21:17 22:10 23:2021
200 0:39 1:0.2 2:60.00000000000001 10:1 12:1128299 16:1 19:1 20:8 21:17 22:4 23:2021
218 0:39 1:0.5600000000000001 2:103 5:1 10:1 12:1128299 16:1 18:1 20:8 21:17 22:6 23:2021
225 0:39 1:0.4 2:88 3:1 10:1 12:1128299 16:1 18:1 20:8 21:16 22:7 23:2021
135 0:39 1:0.37 2:60 3:1 10:1 12:1128299 16:1 18:1 20:8 21:18 22:9 23:2021
90 0:39 1:0.35 2:41 6:1 10:1 12:1128299 16:1 19:1 20:8 21:17 22:4 23:2021
575 0:39 1:0.25 2:65.00000000000001 3:1 10:1 12:1128299 16:1 20:8 21:17 22:10 23:2021
238 0:39 1:0.33 2:60 7:1 10:1 12:1128299 16:1 19:1 20:8 21:17 22:6 23:2021
700 0:39 1:0.25 2:60.00000000000001 3:1 10:1 12:1128299 16:1 20:8 21:17 22:11 23:2021
186 0:39 1:0.33 2:59 6:1 10:1 12:1128299 16:1 19:1 20:8 21:16 22:7 23:2021
425 0:39 1:0.25 2:65 3:1 10:1 12:1128299 16:1 19:1 20:8 21:18 22:5 23:2021
124 0:39 1:0.3 2:77 10:1 12:1128299 16:1 18:1 20:8 21:17 22:11 23:2021
147 0:39 1:0.41 2:53 7:1 10:1 12:1128299 16:1 18:1 20:8 21:17 22:11 23:2021
195 0:39 1:0.32 2:89 10:1 12:1128299 16:1 18:1 20:8 21:16 22:7 23:2021
475 0:39 1:0.2 2:85.00000000000001 10:1 12:1128299 16:1 20:8 21:17 22:11 23:2021
109 0:39 1:0.6 2:72 5:1 10:1 12:1128299 16:1 18:1 20:8 21:17 22:4 23:2021
263 0:39 1:0.28 2:74 3:1 10:1 12:1128299 16:1 19:1 20:8 21:16 22:7 23:2021
216 0:39 1:0.4 2:72 4:1 10:1 12:1128299 16:1 18:1 20:8 21:16 22:12 23:2021
231 0:39 1:0.33 2:62 7:1 10:1 12:1128299 16:1 19:1 20:8 21:17 22:8 23:2021
375 0:39 1:0.45 2:75.00000000000001 5:1 10:1 12:1128299 16:1 19:1 20:8 21:17 22:4 23:2021
223 0:39 1:0.45 2:61 4:1 10:1 12:1128299 16:1 18:1 20:8 21:17 22:6 23:2021
375 0:39 1:0.3 2:55.00000000000001 6:1 10:1 12:1128299 16:1 20:8 21:17 22:10 23:2021
173 0:39 1:0.5800000000000001 2:67 5:1 10:1 12:1128299 16:1 18:1 20:8 21:18 22:5 23:2021
100 0:39 1:0.44 2:47 4:1 10:1 12:1128299 16:1 18:1 20:8 21:17 22:10 23:2021
175 0:39 1:0.38 2:54 3:1 10:1 12:1128299 16:1 18:1 20:8 21:17 22:11 23:2021
300 0:39 1:0.3 2:60.00000000000001 7:1 10:1 12:1128299 16:1 20:8 21:18 22:9 23:2021
88 0:39 1:0.43 2:59 6:1 10:1 12:1128299 16:1 18:1 20:8 21:18 22:5 23:2021
210 0:39 1:0.43 2:80 7:1 10:1 12:1128299 16:1 18:1 20:8 21:17 22:6 23:2021
625 0:39 1:0.3 2:55.00000000000001 4:1 10:1 12:1128299 16:1 20:8 21:17 22:11 23:2021
400 0:39 1:0.45 2:70 5:1 10:1 12:1128299 16:1 20:8 21:17 22:10 23:2021
75 0:39 1:0.55 2:51 5:1 10:1 12:1128299 16:1 18:1 20:8 21:18 22:9 23:2021
94 0:39 1:0.23 2:54 10:1 12:1128299 16:1 19:1 20:8 21:18 22:9 23:2021
143 0:39 1:0.42 2:77 6:1 10:1 12:1128299 16:1 18:1 20:8 21:17 22:8 23:2021
113 0:39 1:0.5 2:57 5:1 10:1 12:1128299 16:1 19:1 20:8 21:17 22:4 23:2021
98 0:39 1:0.35 2:66 3:1 10:1 12:1128299 16:1 18:1 20:8 21:17 22:4 23:2021
261 0:39 1:0.44 2:83 4:1 10:1 12:1128299 16:1 18:1 20:8 21:16 22:7 23:2021
119 0:39 1:0.45 2:59 7:1 10:1 12:1128299 16:1 18:1 20:8 21:18 22:5 23:2021
825 0:39 1:0.25 2:85.00000000000001 3:1 10:1 12:1128299 16:1 20:8 21:17 22:8 23:2021
169 0:39 1:0.4 2:52 4:1 10:1 12:1128299 16:1 18:1 20:8 21:17 22:11 23:2021
575 0:39 1:0.3 2:60 4:1 10:1 12:1128299 16:1 19:1 20:8 21:18 22:5 23:2021
224 0:39 1:0.29 2:53 3:1 10:1 12:1128299 16:1 19:1 20:8 21:17 22:6 23:2021
58 0:39 1:0.35 2:59 10:1 12:1128299 16:1 18:1 20:8 21:17 22:4 23:2021
500 0:39 1:0.3 2:65.00000000000001 6:1 10:1 12:1128299 16:1 20:8 21:17 22:11 23:2021
300 0:39 1:0.45 2:85 5:1 10:1 12:1128299 16:1 20:8 21:17 22:8 23:2021
60 0:39 1:0.22 2:47 10:1 12:1128299 16:1 19:1 20:8 21:17 22:4 23:2021
272 0:39 1:0.32 2:50 4:1 10:1 12:1128299 16:1 19:1 20:8 21:17 22:6 23:2021
132 0:39 1:0.34 2:49 7:1 10:1 12:1128299 16:1 19:1 20:8 21:17 22:4 23:2021
300 0:39 1:0.3 2:55.00000000000001 6:1 10:1 12:1128299 16:1 19:1 20:8 21:17 22:4 23:2021
