46 0:30 1:0.43 2:71 8:1 12:1185732 13:1 18:1 20:28 21:19 22:10 23:2021
51 0:43 1:0.46 2:27 6:1 8:1 12:1185732 13:1 19:1 20:38 21:6 22:5 23:2021
39 0:40 1:0.37 2:51 8:1 12:1185732 13:1 19:1 20:37 21:19 22:11 23:2021
98 0:51 1:0.53 2:39 5:1 8:1 12:1185732 13:1 18:1 20:7 21:15 22:2 23:2021
200 0:43 1:0.4 2:40 6:1 8:1 12:1185732 13:1 20:38 21:6 22:7 23:2021
75 0:20 1:0.4 2:30 6:1 8:1 12:1185732 13:1 20:6 21:10 22:1 23:2021
500 0:40 1:0.55 2:65 4:1 8:1 12:1185732 13:1 19:1 20:37 21:27 22:11 23:2021
58 0:40 1:0.54 2:53 6:1 8:1 12:1185732 13:1 18:1 20:37 21:6 22:12 23:2021
350 0:35 1:0.29 2:36 5:1 8:1 12:1185732 13:1 19:1 20:31 21:24 22:1 23:2020
93 0:43 1:0.44 2:36 5:1 8:1 12:1185732 13:1 19:1 20:38 21:6 22:5 23:2021
100 0:43 1:0.3 2:49.99999999999999 8:1 12:1185732 13:1 20:38 21:6 22:9 23:2021
200 0:40 1:0.25 2:50 5:1 8:1 12:1185732 13:1 19:1 20:37 21:14 22:11 23:2021
88 0:43 1:0.51 2:51 5:1 8:1 12:1185732 13:1 18:1 20:38 21:8 22:6 23:2021
145 0:40 1:0.67 2:60 4:1 8:1 12:1185732 13:1 18:1 20:37 21:27 22:11 23:2021
60 0:43 1:0.44 2:26 5:1 8:1 12:1185732 13:1 19:1 20:38 21:7 22:4 23:2021
359 0:35 1:0.34 2:37 3:1 8:1 12:1185732 13:1 19:1 20:31 21:17 22:3 23:2020
117 0:10 1:0.52 2:44 4:1 8:1 12:1185732 13:1 18:1 20:47 21:17 22:11 23:2021
400 0:51 1:0.4 2:60 5:1 8:1 12:1185732 13:1 20:7 21:14 22:8 23:2021
120 0:51 1:0.52 2:59 5:1 8:1 12:1185732 13:1 18:1 20:7 21:14 22:8 23:2021
950 0:35 1:0.25 2:50 5:1 8:1 12:1185732 13:1 19:1 20:31 21:5 22:2 23:2020
250 0:51 1:0.4 2:45 6:1 8:1 12:1185732 13:1 20:7 21:13 22:5 23:2021
68 0:40 1:0.42 2:43 3:1 8:1 12:1185732 13:1 19:1 20:37 21:22 22:12 23:2021
252 0:35 1:0.5 2:39 7:1 8:1 12:1185732 13:1 18:1 20:31 21:2 22:2 23:2020
300 0:30 1:0.4 2:65.00000000000001 3:1 8:1 12:1185732 13:1 19:1 20:28 21:19 22:10 23:2021
450 0:30 1:0.35 2:80 5:1 8:1 12:1185732 13:1 19:1 20:28 21:17 22:12 23:2021
106 0:10 1:0.5 2:33 4:1 8:1 12:1185732 13:1 18:1 20:47 21:24 22:1 23:2021
175 0:43 1:0.4 2:35 5:1 8:1 12:1185732 13:1 20:38 21:6 22:3 23:2021
340 0:35 1:0.34 2:41 3:1 8:1 12:1185732 13:1 19:1 20:31 21:5 22:3 23:2020
85 0:51 1:0.45 2:47 3:1 8:1 12:1185732 13:1 18:1 20:7 21:13 22:9 23:2021
200 0:51 1:0.4 2:45 6:1 8:1 12:1185732 13:1 20:7 21:13 22:9 23:2021
100 0:43 1:0.4 2:40 6:1 8:1 12:1185732 13:1 20:38 21:6 22:9 23:2021
175 0:51 1:0.4 2:55.00000000000001 6:1 8:1 12:1185732 13:1 20:7 21:15 22:10 23:2021
450 0:10 1:0.4 2:44.99999999999999 4:1 8:1 12:1185732 13:1 20:47 21:17 22:11 23:2021
48 0:4 1:0.5 2:49 7:1 8:1 12:1185732 13:1 18:1 20:19 21:21 22:11 23:2021
275 0:20 1:0.3 2:55.00000000000001 6:1 8:1 12:1185732 13:1 20:6 21:4 22:11 23:2021
84 0:10 1:0.5 2:47 5:1 8:1 12:1185732 13:1 18:1 20:47 21:17 22:10 23:2021
33 0:20 1:0.4 2:44 8:1 12:1185732 13:1 18:1 20:6 21:10 22:1 23:2021
160 0:51 1:0.48 2:51 4:1 8:1 12:1185732 13:1 18:1 20:7 21:13 22:5 23:2021
24 0:40 1:0.34 2:41 8:1 12:1185732 13:1 19:1 20:37 21:7 22:11 23:2021
72 0:51 1:0.5 2:39 5:1 8:1 12:1185732 13:1 18:1 20:7 21:13 22:3 23:2021
44 0:20 1:0.36 2:34 8:1 12:1185732 13:1 19:1 20:6 21:10 22:1 23:2021
300 0:51 1:0.4 2:45 7:1 8:1 12:1185732 13:1 20:7 21:13 22:5 23:2021
125 0:40 1:0.35 2:50 7:1 8:1 12:1185732 13:1 19:1 20:37 21:17 22:12 23:2021
275 0:51 1:0.3 2:54.99999999999999 8:1 12:1185732 13:1 20:7 21:13 22:5 23:2021
230 0:35 1:0.42 2:59 8:1 12:1185732 13:1 18:1 20:31 21:29 22:1 23:2020
248 0:35 1:0.38 2:32 6:1 8:1 12:1185732 13:1 19:1 20:31 21:22 22:1 23:2020
225 0:20 1:0.4 2:25.00000000000001 7:1 8:1 12:1185732 13:1 20:6 21:10 22:1 23:2021
59 0:30 1:0.46 2:53 3:1 8:1 12:1185732 13:1 18:1 20:28 21:22 22:2 23:2021
19 0:43 1:0.4 2:55 8:1 12:1185732 13:1 18:1 20:38 21:8 22:10 23:2021
350 0:20 1:0.3 2:55.00000000000001 7:1 8:1 12:1185732 13:1 20:6 21:3 22:12 23:2021
94 0:43 1:0.5 2:53 4:1 8:1 12:1185732 13:1 18:1 20:38 21:8 22:10 23:2021
225 0:4 1:0.3 2:64.99999999999999 5:1 8:1 12:1185732 13:1 20:19 21:21 22:11 23:2021
250 0:4 1:0.35 2:50 3:1 8:1 12:1185732 13:1 20:19 21:20 22:12 23:2021
225 0:40 1:0.25 2:64.99999999999999 5:1 8:1 12:1185732 13:1 19:1 20:37 21:20 22:12 23:2021
125 0:51 1:0.4 2:35 6:1 8:1 12:1185732 13:1 20:7 21:13 22:3 23:2021
225 0:51 1:0.4 2:30 7:1 8:1 12:1185732 13:1 20:7 21:14 22:4 23:2021
8 0:40 1:0.4399999999999999 2:32 6:1 8:1 12:1185732 13:1 19:1 20:37 21:6 22:11 23:2021
300 0:43 1:0.35 2:45 3:1 8:1 12:1185732 13:1 20:38 21:8 22:6 23:2021
120 0:40 1:0.7000000000000001 2:49 4:1 8:1 12:1185732 13:1 18:1 20:37 21:3 22:11 23:2021
20 0:4 1:0.4 2:56 8:1 12:1185732 13:1 18:1 20:19 21:22 22:10 23:2021
94 0:20 1:0.42 2:46 5:1 8:1 12:1185732 13:1 19:1 20:6 21:5 22:10 23:2021
66 0:43 1:0.35 2:39 8:1 12:1185732 13:1 19:1 20:38 21:8 22:6 23:2021
116 0:43 1:0.5 2:50 5:1 8:1 12:1185732 13:1 18:1 20:38 21:6 22:7 23:2021
225 0:30 1:0.35 2:55.00000000000001 3:1 8:1 12:1185732 13:1 19:1 20:28 21:22 22:2 23:2021
175 0:40 1:0.4 2:40 7:1 8:1 12:1185732 13:1 19:1 20:37 21:5 22:11 23:2021
200 0:40 1:0.35 2:45 7:1 8:1 12:1185732 13:1 19:1 20:37 21:11 22:12 23:2021
128 0:51 1:0.45 2:56 4:1 8:1 12:1185732 13:1 18:1 20:7 21:15 22:10 23:2021
90 0:51 1:0.53 2:43 6:1 8:1 12:1185732 13:1 18:1 20:7 21:13 22:7 23:2021
135 0:51 1:0.53 2:56 5:1 8:1 12:1185732 13:1 18:1 20:7 21:15 22:6 23:2021
150 0:51 1:0.4 2:35 6:1 8:1 12:1185732 13:1 20:7 21:15 22:2 23:2021
72 0:20 1:0.42 2:19 7:1 8:1 12:1185732 13:1 19:1 20:6 21:10 22:1 23:2021
300 0:30 1:0.3 2:55.00000000000001 5:1 8:1 12:1185732 13:1 19:1 20:28 21:24 22:1 23:2021
85 0:43 1:0.43 2:30 7:1 8:1 12:1185732 13:1 19:1 20:38 21:7 22:8 23:2021
53 0:40 1:0.47 2:41 6:1 8:1 12:1185732 13:1 18:1 20:37 21:12 22:12 23:2021
20 0:43 1:0.45 2:44 8:1 12:1185732 13:1 18:1 20:38 21:6 22:3 23:2021
15 0:43 1:0.32 2:33 8:1 12:1185732 13:1 19:1 20:38 21:7 22:4 23:2021
91 0:10 1:0.55 2:38 6:1 8:1 12:1185732 13:1 18:1 20:47 21:17 22:11 23:2021
900 0:35 1:0.3 2:50 3:1 8:1 12:1185732 13:1 19:1 20:31 21:8 22:1 23:2020
33 0:43 1:0.5 2:32 3:1 8:1 12:1185732 13:1 18:1 20:38 21:7 22:4 23:2021
231 0:35 1:0.43 2:58 8:1 12:1185732 13:1 18:1 20:31 21:14 22:3 23:2020
36 0:43 1:0.52 2:24 7:1 8:1 12:1185732 13:1 18:1 20:38 21:7 22:4 23:2021
400 0:30 1:0.3 2:65.00000000000001 7:1 8:1 12:1185732 13:1 19:1 20:28 21:17 22:12 23:2021
175 0:40 1:0.3 2:60.00000000000001 3:1 8:1 12:1185732 13:1 19:1 20:37 21:16 22:11 23:2021
173 0:20 1:0.42 2:45 4:1 8:1 12:1185732 13:1 19:1 20:6 21:3 22:12 23:2021
75 0:43 1:0.3 2:60 8:1 12:1185732 13:1 20:38 21:8 22:10 23:2021
158 0:40 1:0.66 2:60 4:1 8:1 12:1185732 13:1 18:1 20:37 21:3 22:12 23:2021
101 0:20 1:0.51 2:51 3:1 8:1 12:1185732 13:1 18:1 20:6 21:3 22:12 23:2021
250 0:40 1:0.3 2:75 5:1 8:1 12:1185732 13:1 19:1 20:37 21:26 22:12 23:2021
35 0:40 1:0.48 2:44 3:1 8:1 12:1185732 13:1 18:1 20:37 21:29 22:10 23:2021
35 0:43 1:0.41 2:41 8:1 12:1185732 13:1 18:1 20:38 21:8 22:2 23:2021
81 0:43 1:0.5 2:41 3:1 8:1 12:1185732 13:1 18:1 20:38 21:6 22:7 23:2021
45 0:40 1:0.42 2:45 3:1 8:1 12:1185732 13:1 18:1 20:37 21:10 22:11 23:2021
15 0:43 1:0.4 2:44 8:1 12:1185732 13:1 18:1 20:38 21:7 22:4 23:2021
88 0:4 1:0.55 2:58 4:1 8:1 12:1185732 13:1 18:1 20:19 21:21 22:11 23:2021
550 0:43 1:0.35 2:49.99999999999999 4:1 8:1 12:1185732 13:1 20:38 21:8 22:6 23:2021
80 0:20 1:0.45 2:51 7:1 8:1 12:1185732 13:1 18:1 20:6 21:4 22:11 23:2021
143 0:40 1:0.6 2:62 4:1 8:1 12:1185732 13:1 18:1 20:37 21:9 22:12 23:2021
125 0:43 1:0.3 2:49.99999999999999 8:1 12:1185732 13:1 20:38 21:7 22:8 23:2021
289 0:35 1:0.4 2:33 6:1 8:1 12:1185732 13:1 19:1 20:31 21:9 22:2 23:2020
156 0:40 1:0.5800000000000001 2:39 4:1 8:1 12:1185732 13:1 19:1 20:37 21:3 22:11 23:2021
115 0:20 1:0.46 2:34 4:1 8:1 12:1185732 13:1 18:1 20:6 21:10 22:1 23:2021
366 0:35 1:0.52 2:44 4:1 8:1 12:1185732 13:1 19:1 20:31 21:6 22:2 23:2020
350 0:35 1:0.37 2:32 7:1 8:1 12:1185732 13:1 19:1 20:31 21:3 22:1 23:2020
475 0:10 1:0.4 2:35 4:1 8:1 12:1185732 13:1 20:47 21:22 22:2 23:2021
145 0:51 1:0.5 2:55 5:1 8:1 12:1185732 13:1 18:1 20:7 21:13 22:7 23:2021
100 0:43 1:0.4 2:50 7:1 8:1 12:1185732 13:1 20:38 21:8 22:10 23:2021
68 0:43 1:0.38 2:38 3:1 8:1 12:1185732 13:1 19:1 20:38 21:8 22:10 23:2021
308 0:35 1:0.41 2:53 3:1 8:1 12:1185732 13:1 18:1 20:31 21:17 22:3 23:2020
238 0:35 1:0.35 2:45 5:1 8:1 12:1185732 13:1 18:1 20:31 21:30 22:1 23:2020
79 0:43 1:0.37 2:30 3:1 8:1 12:1185732 13:1 19:1 20:38 21:6 22:9 23:2021
53 0:40 1:0.37 2:33 3:1 8:1 12:1185732 13:1 19:1 20:37 21:4 22:11 23:2021
475 0:40 1:0.55 2:45 4:1 8:1 12:1185732 13:1 19:1 20:37 21:28 22:10 23:2021
23 0:43 1:0.33 2:40 8:1 12:1185732 13:1 19:1 20:38 21:8 22:10 23:2021
225 0:10 1:0.35 2:25.00000000000001 7:1 8:1 12:1185732 13:1 20:47 21:24 22:1 23:2021
125 0:43 1:0.4 2:40 7:1 8:1 12:1185732 13:1 20:38 21:6 22:9 23:2021
150 0:40 1:0.4 2:55.00000000000001 6:1 8:1 12:1185732 13:1 19:1 20:37 21:24 22:11 23:2021
350 0:10 1:0.4 2:55.00000000000001 6:1 8:1 12:1185732 13:1 20:47 21:16 22:12 23:2021
225 0:4 1:0.35 2:40 3:1 8:1 12:1185732 13:1 20:19 21:15 22:2 23:2021
68 0:51 1:0.45 2:39 3:1 8:1 12:1185732 13:1 18:1 20:7 21:13 22:3 23:2021
142 0:51 1:0.49 2:50 4:1 8:1 12:1185732 13:1 18:1 20:7 21:13 22:9 23:2021
225 0:43 1:0.35 2:45 3:1 8:1 12:1185732 13:1 20:38 21:6 22:9 23:2021
1025 0:35 1:0.3 2:55.00000000000001 3:1 8:1 12:1185732 13:1 19:1 20:31 21:17 22:3 23:2020
114 0:30 1:0.34 2:43 6:1 8:1 12:1185732 13:1 19:1 20:28 21:18 22:11 23:2021
150 0:51 1:0.3 2:50 8:1 12:1185732 13:1 20:7 21:14 22:4 23:2021
80 0:20 1:0.42 2:50 6:1 8:1 12:1185732 13:1 18:1 20:6 21:4 22:11 23:2021
49 0:43 1:0.45 2:43 3:1 8:1 12:1185732 13:1 18:1 20:38 21:6 22:5 23:2021
1250 0:35 1:0.5 2:60 4:1 8:1 12:1185732 13:1 19:1 20:31 21:16 22:3 23:2020
59 0:40 1:0.5 2:51 7:1 8:1 12:1185732 13:1 18:1 20:37 21:29 22:11 23:2021
175 0:40 1:0.5700000000000001 2:49 4:1 8:1 12:1185732 13:1 19:1 20:37 21:27 22:11 23:2021
135 0:40 1:0.65 2:64 4:1 8:1 12:1185732 13:1 18:1 20:37 21:21 22:11 23:2021
136 0:40 1:0.63 2:58 4:1 8:1 12:1185732 13:1 18:1 20:37 21:15 22:11 23:2021
29 0:40 1:0.45 2:48 6:1 8:1 12:1185732 13:1 18:1 20:37 21:18 22:12 23:2021
93 0:30 1:0.4 2:36 3:1 8:1 12:1185732 13:1 19:1 20:28 21:24 22:1 23:2021
149 0:20 1:0.42 2:23 4:1 8:1 12:1185732 13:1 19:1 20:6 21:10 22:1 23:2021
100 0:40 1:0.3 2:60 8:1 12:1185732 13:1 19:1 20:37 21:19 22:12 23:2021
150 0:43 1:0.4 2:40 6:1 8:1 12:1185732 13:1 20:38 21:6 22:5 23:2021
175 0:20 1:0.4 2:25.00000000000001 7:1 8:1 12:1185732 13:1 20:6 21:8 22:2 23:2021
650 0:51 1:0.35 2:54.99999999999999 4:1 8:1 12:1185732 13:1 20:7 21:14 22:8 23:2021
175 0:43 1:0.3 2:49.99999999999999 8:1 12:1185732 13:1 20:38 21:6 22:5 23:2021
288 0:35 1:0.42 2:36 7:1 8:1 12:1185732 13:1 19:1 20:31 21:8 22:2 23:2020
132 0:43 1:0.42 2:28 4:1 8:1 12:1185732 13:1 19:1 20:38 21:7 22:4 23:2021
51 0:4 1:0.47 2:45 3:1 8:1 12:1185732 13:1 18:1 20:19 21:21 22:11 23:2021
90 0:30 1:0.39 2:64 5:1 8:1 12:1185732 13:1 19:1 20:28 21:19 22:10 23:2021
275 0:30 1:0.25 2:45 7:1 8:1 12:1185732 13:1 19:1 20:28 21:22 22:2 23:2021
20 0:40 1:0.46 2:42 6:1 8:1 12:1185732 13:1 18:1 20:37 21:12 22:11 23:2021
1200 0:35 1:0.5 2:50 4:1 8:1 12:1185732 13:1 19:1 20:31 21:31 22:1 23:2020
900 0:35 1:0.35 2:50 6:1 8:1 12:1185732 13:1 19:1 20:31 21:7 22:3 23:2020
425 0:20 1:0.35 2:35 4:1 8:1 12:1185732 13:1 20:6 21:10 22:1 23:2021
525 0:4 1:0.35 2:40 4:1 8:1 12:1185732 13:1 20:19 21:17 22:1 23:2021
41 0:40 1:0.34 2:36 8:1 12:1185732 13:1 19:1 20:37 21:13 22:12 23:2021
500 0:51 1:0.4 2:60 5:1 8:1 12:1185732 13:1 20:7 21:13 22:7 23:2021
79 0:20 1:0.4 2:28 3:1 8:1 12:1185732 13:1 19:1 20:6 21:10 22:1 23:2021
31 0:40 1:0.42 2:59 8:1 12:1185732 13:1 18:1 20:37 21:19 22:11 23:2021
900 0:35 1:0.3 2:60 8:1 12:1185732 13:1 20:31 21:5 22:1 23:2020
119 0:43 1:0.45 2:43 5:1 8:1 12:1185732 13:1 19:1 20:38 21:8 22:6 23:2021
247 0:35 1:0.45 2:46 7:1 8:1 12:1185732 13:1 18:1 20:31 21:12 22:3 23:2020
122 0:10 1:0.55 2:68 5:1 8:1 12:1185732 13:1 18:1 20:47 21:16 22:12 23:2021
475 0:51 1:0.35 2:60 4:1 8:1 12:1185732 13:1 20:7 21:15 22:10 23:2021
175 0:43 1:0.4 2:25.00000000000001 7:1 8:1 12:1185732 13:1 20:38 21:6 22:3 23:2021
206 0:35 1:0.49 2:44 6:1 8:1 12:1185732 13:1 18:1 20:31 21:22 22:1 23:2020
300 0:20 1:0.3 2:65 8:1 12:1185732 13:1 20:6 21:3 22:12 23:2021
267 0:35 1:0.42 2:53 3:1 8:1 12:1185732 13:1 18:1 20:31 21:11 22:3 23:2020
925 0:35 1:0.3 2:55.00000000000001 3:1 8:1 12:1185732 13:1 19:1 20:31 21:7 22:2 23:2020
61 0:40 1:0.4 2:55 5:1 8:1 12:1185732 13:1 18:1 20:37 21:14 22:12 23:2021
170 0:40 1:0.5700000000000001 2:49 4:1 8:1 12:1185732 13:1 19:1 20:37 21:21 22:11 23:2021
200 0:30 1:0.3 2:65.00000000000001 7:1 8:1 12:1185732 13:1 19:1 20:28 21:19 22:10 23:2021
58 0:43 1:0.51 2:52 5:1 8:1 12:1185732 13:1 18:1 20:38 21:6 22:9 23:2021
74 0:51 1:0.42 2:50 8:1 12:1185732 13:1 18:1 20:7 21:13 22:5 23:2021
44 0:43 1:0.45 2:34 3:1 8:1 12:1185732 13:1 18:1 20:38 21:6 22:3 23:2021
63 0:20 1:0.55 2:24 7:1 8:1 12:1185732 13:1 18:1 20:6 21:10 22:1 23:2021
175 0:40 1:0.25 2:50 5:1 8:1 12:1185732 13:1 19:1 20:37 21:8 22:11 23:2021
170 0:4 1:0.35 2:50 7:1 8:1 12:1185732 13:1 20:19 21:21 22:11 23:2021
125 0:40 1:0.3 2:54.99999999999999 8:1 12:1185732 13:1 19:1 20:37 21:13 22:12 23:2021
1000 0:35 1:0.25 2:65 5:1 8:1 12:1185732 13:1 19:1 20:31 21:3 22:3 23:2020
150 0:40 1:0.35 2:65 8:1 12:1185732 13:1 19:1 20:37 21:25 22:11 23:2021
1000 0:35 1:0.25 2:50 5:1 8:1 12:1185732 13:1 20:31 21:6 22:1 23:2020
68 0:40 1:0.32 2:35 3:1 8:1 12:1185732 13:1 19:1 20:37 21:16 22:12 23:2021
150 0:43 1:0.41 2:39 4:1 8:1 12:1185732 13:1 19:1 20:38 21:6 22:5 23:2021
261 0:35 1:0.47 2:46 7:1 8:1 12:1185732 13:1 18:1 20:31 21:8 22:2 23:2020
44 0:40 1:0.35 2:47 5:1 8:1 12:1185732 13:1 18:1 20:37 21:8 22:11 23:2021
175 0:4 1:0.35 2:40 7:1 8:1 12:1185732 13:1 20:19 21:22 22:6 23:2021
81 0:43 1:0.53 2:52 5:1 8:1 12:1185732 13:1 18:1 20:38 21:6 22:5 23:2021
49 0:51 1:0.4 2:62 8:1 12:1185732 13:1 18:1 20:7 21:15 22:10 23:2021
61 0:40 1:0.44 2:43 5:1 8:1 12:1185732 13:1 18:1 20:37 21:27 22:10 23:2021
300 0:30 1:0.25 2:45 7:1 8:1 12:1185732 13:1 19:1 20:28 21:24 22:1 23:2021
166 0:40 1:0.6000000000000001 2:32 4:1 8:1 12:1185732 13:1 19:1 20:37 21:28 22:10 23:2021
99 0:20 1:0.35 2:42 8:1 12:1185732 13:1 19:1 20:6 21:3 22:12 23:2021
278 0:35 1:0.48 2:46 7:1 8:1 12:1185732 13:1 18:1 20:31 21:6 22:3 23:2020
61 0:30 1:0.32 2:44 6:1 8:1 12:1185732 13:1 19:1 20:28 21:19 22:10 23:2021
575 0:20 1:0.4 2:65 4:1 8:1 12:1185732 13:1 20:6 21:3 22:12 23:2021
900 0:35 1:0.35 2:50 7:1 8:1 12:1185732 13:1 19:1 20:31 21:8 22:2 23:2020
30 0:43 1:0.44 2:40 7:1 8:1 12:1185732 13:1 19:1 20:38 21:8 22:10 23:2021
225 0:43 1:0.4 2:35 5:1 8:1 12:1185732 13:1 20:38 21:8 22:2 23:2021
125 0:20 1:0.3 2:45 8:1 12:1185732 13:1 20:6 21:10 22:1 23:2021
165 0:30 1:0.3700000000000001 2:36 4:1 8:1 12:1185732 13:1 19:1 20:28 21:24 22:1 23:2021
20 0:20 1:0.53 2:29 6:1 8:1 12:1185732 13:1 18:1 20:6 21:10 22:1 23:2021
350 0:30 1:0.3 2:65.00000000000001 6:1 8:1 12:1185732 13:1 19:1 20:28 21:17 22:12 23:2021
300 0:30 1:0.35 2:55.00000000000001 3:1 8:1 12:1185732 13:1 19:1 20:28 21:24 22:1 23:2021
122 0:43 1:0.5 2:49 4:1 8:1 12:1185732 13:1 18:1 20:38 21:6 22:5 23:2021
225 0:40 1:0.3 2:45 5:1 8:1 12:1185732 13:1 19:1 20:37 21:27 22:10 23:2021
295 0:35 1:0.42 2:35 7:1 8:1 12:1185732 13:1 19:1 20:31 21:12 22:3 23:2020
300 0:10 1:0.4 2:49.99999999999999 5:1 8:1 12:1185732 13:1 20:47 21:17 22:10 23:2021
354 0:35 1:0.63 2:46 4:1 8:1 12:1185732 13:1 18:1 20:31 21:25 22:1 23:2020
42 0:40 1:0.48 2:64 8:1 12:1185732 13:1 18:1 20:37 21:25 22:12 23:2021
50 0:43 1:0.4 2:30 6:1 8:1 12:1185732 13:1 20:38 21:7 22:4 23:2021
96 0:43 1:0.47 2:38 5:1 8:1 12:1185732 13:1 19:1 20:38 21:7 22:8 23:2021
250 0:40 1:0.35 2:60.00000000000001 3:1 8:1 12:1185732 13:1 19:1 20:37 21:22 22:11 23:2021
261 0:35 1:0.45 2:47 6:1 8:1 12:1185732 13:1 18:1 20:31 21:7 22:3 23:2020
84 0:20 1:0.52 2:51 3:1 8:1 12:1185732 13:1 18:1 20:6 21:4 22:11 23:2021
325 0:30 1:0.3 2:65.00000000000001 6:1 8:1 12:1185732 13:1 19:1 20:28 21:18 22:11 23:2021
27 0:43 1:0.41 2:47 8:1 12:1185732 13:1 18:1 20:38 21:6 22:9 23:2021
13 0:43 1:0.53 2:29 6:1 8:1 12:1185732 13:1 18:1 20:38 21:7 22:4 23:2021
52 0:51 1:0.55 2:50 7:1 8:1 12:1185732 13:1 18:1 20:7 21:15 22:10 23:2021
575 0:43 1:0.35 2:49.99999999999999 4:1 8:1 12:1185732 13:1 20:38 21:6 22:7 23:2021
300 0:20 1:0.3 2:55.00000000000001 6:1 8:1 12:1185732 13:1 20:6 21:3 22:12 23:2021
200 0:30 1:0.47 2:49 4:1 8:1 12:1185732 13:1 19:1 20:28 21:17 22:12 23:2021
325 0:43 1:0.35 2:45 3:1 8:1 12:1185732 13:1 20:38 21:7 22:8 23:2021
56 0:43 1:0.48 2:43 3:1 8:1 12:1185732 13:1 18:1 20:38 21:6 22:9 23:2021
475 0:30 1:0.4 2:70 4:1 8:1 12:1185732 13:1 19:1 20:28 21:19 22:10 23:2021
925 0:35 1:0.35 2:50 6:1 8:1 12:1185732 13:1 19:1 20:31 21:31 22:3 23:2020
241 0:35 1:0.47 2:47 6:1 8:1 12:1185732 13:1 18:1 20:31 21:31 22:3 23:2020
26 0:40 1:0.37 2:45 8:1 12:1185732 13:1 19:1 20:37 21:13 22:11 23:2021
425 0:51 1:0.35 2:50 3:1 8:1 12:1185732 13:1 20:7 21:13 22:7 23:2021
189 0:51 1:0.46 2:51 4:1 8:1 12:1185732 13:1 18:1 20:7 21:15 22:6 23:2021
42 0:40 1:0.46 2:52 7:1 8:1 12:1185732 13:1 18:1 20:37 21:17 22:11 23:2021
74 0:20 1:0.5 2:63 5:1 8:1 12:1185732 13:1 18:1 20:6 21:5 22:10 23:2021
25 0:40 1:0.4 2:45 6:1 8:1 12:1185732 13:1 19:1 20:37 21:6 22:11 23:2021
88 0:20 1:0.36 2:44 8:1 12:1185732 13:1 19:1 20:6 21:4 22:11 23:2021
425 0:20 1:0.4 2:65 4:1 8:1 12:1185732 13:1 20:6 21:4 22:11 23:2021
149 0:20 1:0.43 2:51 4:1 8:1 12:1185732 13:1 19:1 20:6 21:4 22:11 23:2021
39 0:30 1:0.37 2:49 6:1 8:1 12:1185732 13:1 18:1 20:28 21:24 22:1 23:2021
36 0:40 1:0.46 2:51 8:1 12:1185732 13:1 18:1 20:37 21:1 22:11 23:2021
125 0:43 1:0.4 2:25.00000000000001 7:1 8:1 12:1185732 13:1 20:38 21:7 22:4 23:2021
184 0:30 1:0.3700000000000001 2:41 4:1 8:1 12:1185732 13:1 19:1 20:28 21:22 22:2 23:2021
257 0:35 1:0.46 2:45 7:1 8:1 12:1185732 13:1 18:1 20:31 21:18 22:3 23:2020
113 0:43 1:0.41 2:37 4:1 8:1 12:1185732 13:1 19:1 20:38 21:8 22:10 23:2021
125 0:20 1:0.35 2:35 3:1 8:1 12:1185732 13:1 20:6 21:8 22:2 23:2021
900 0:35 1:0.3 2:60 8:1 12:1185732 13:1 19:1 20:31 21:8 22:3 23:2020
324 0:35 1:0.4 2:40 6:1 8:1 12:1185732 13:1 19:1 20:31 21:31 22:3 23:2020
163 0:51 1:0.49 2:50 4:1 8:1 12:1185732 13:1 18:1 20:7 21:14 22:8 23:2021
45 0:43 1:0.39 2:27 3:1 8:1 12:1185732 13:1 19:1 20:38 21:6 22:3 23:2021
23 0:43 1:0.5 2:47 6:1 8:1 12:1185732 13:1 18:1 20:38 21:8 22:10 23:2021
72 0:20 1:0.47 2:26 5:1 8:1 12:1185732 13:1 19:1 20:6 21:10 22:1 23:2021
120 0:30 1:0.41 2:61 5:1 8:1 12:1185732 13:1 19:1 20:28 21:18 22:11 23:2021
63 0:4 1:0.43 2:62 5:1 8:1 12:1185732 13:1 18:1 20:19 21:21 22:11 23:2021
95 0:10 1:0.5 2:61 8:1 12:1185732 13:1 18:1 20:47 21:16 22:12 23:2021
434 0:35 1:0.52 2:44 4:1 8:1 12:1185732 13:1 19:1 20:31 21:10 22:3 23:2020
475 0:40 1:0.5 2:65 4:1 8:1 12:1185732 13:1 19:1 20:37 21:9 22:12 23:2021
38 0:40 1:0.38 2:38 7:1 8:1 12:1185732 13:1 19:1 20:37 21:17 22:12 23:2021
281 0:35 1:0.37 2:36 6:1 8:1 12:1185732 13:1 19:1 20:31 21:4 22:1 23:2020
200 0:30 1:0.25 2:65.00000000000001 8:1 12:1185732 13:1 19:1 20:28 21:24 22:1 23:2021
117 0:30 1:0.53 2:68 4:1 8:1 12:1185732 13:1 18:1 20:28 21:18 22:11 23:2021
61 0:40 1:0.31 2:38 5:1 8:1 12:1185732 13:1 19:1 20:37 21:8 22:11 23:2021
1220 0:35 1:0.5 2:50 4:1 8:1 12:1185732 13:1 19:1 20:31 21:25 22:1 23:2020
84 0:30 1:0.47 2:50 3:1 8:1 12:1185732 13:1 18:1 20:28 21:24 22:1 23:2021
31 0:51 1:0.53 2:32 6:1 8:1 12:1185732 13:1 18:1 20:7 21:13 22:3 23:2021
75 0:40 1:0.36 2:53 5:1 8:1 12:1185732 13:1 19:1 20:37 21:26 22:12 23:2021
13 0:40 1:0.52 2:39 6:1 8:1 12:1185732 13:1 18:1 20:37 21:31 22:10 23:2021
320 0:35 1:0.35 2:36 3:1 8:1 12:1185732 13:1 19:1 20:31 21:2 22:1 23:2020
63 0:20 1:0.45 2:34 3:1 8:1 12:1185732 13:1 18:1 20:6 21:10 22:1 23:2021
925 0:35 1:0.35 2:50 7:1 8:1 12:1185732 13:1 19:1 20:31 21:6 22:3 23:2020
400 0:30 1:0.35 2:80 5:1 8:1 12:1185732 13:1 19:1 20:28 21:18 22:11 23:2021
68 0:40 1:0.45 2:44 5:1 8:1 12:1185732 13:1 18:1 20:37 21:2 22:11 23:2021
825 0:35 1:0.3 2:60 8:1 12:1185732 13:1 19:1 20:31 21:4 22:2 23:2020
238 0:35 1:0.37 2:49 5:1 8:1 12:1185732 13:1 18:1 20:31 21:5 22:2 23:2020
44 0:40 1:0.53 2:51 6:1 8:1 12:1185732 13:1 18:1 20:37 21:30 22:11 23:2021
150 0:30 1:0.25 2:49.99999999999999 6:1 8:1 12:1185732 13:1 19:1 20:28 21:24 22:1 23:2021
137 0:4 1:0.45 2:36 4:1 8:1 12:1185732 13:1 18:1 20:19 21:17 22:1 23:2021
200 0:51 1:0.3 2:54.99999999999999 8:1 12:1185732 13:1 20:7 21:13 22:9 23:2021
675 0:51 1:0.35 2:54.99999999999999 4:1 8:1 12:1185732 13:1 20:7 21:13 22:7 23:2021
75 0:40 1:0.3 2:60 8:1 12:1185732 13:1 19:1 20:37 21:7 22:11 23:2021
384 0:35 1:0.52 2:34 4:1 8:1 12:1185732 13:1 19:1 20:31 21:1 22:1 23:2020
125 0:40 1:0.35 2:45 3:1 8:1 12:1185732 13:1 19:1 20:37 21:29 22:10 23:2021
116 0:30 1:0.35 2:49 6:1 8:1 12:1185732 13:1 19:1 20:28 21:17 22:12 23:2021
95 0:20 1:0.47 2:67 5:1 8:1 12:1185732 13:1 18:1 20:6 21:4 22:11 23:2021
425 0:30 1:0.4 2:65.00000000000001 3:1 8:1 12:1185732 13:1 19:1 20:28 21:17 22:12 23:2021
95 0:10 1:0.53 2:33 3:1 8:1 12:1185732 13:1 18:1 20:47 21:17 22:11 23:2021
239 0:35 1:0.49 2:41 6:1 8:1 12:1185732 13:1 18:1 20:31 21:3 22:2 23:2020
225 0:51 1:0.35 2:40 3:1 8:1 12:1185732 13:1 20:7 21:14 22:4 23:2021
296 0:35 1:0.41 2:37 7:1 8:1 12:1185732 13:1 19:1 20:31 21:6 22:3 23:2020
124 0:40 1:0.6000000000000001 2:48 4:1 8:1 12:1185732 13:1 19:1 20:37 21:21 22:12 23:2021
81 0:30 1:0.42 2:71 8:1 12:1185732 13:1 18:1 20:28 21:18 22:11 23:2021
85 0:30 1:0.4 2:64 6:1 8:1 12:1185732 13:1 18:1 20:28 21:18 22:11 23:2021
450 0:10 1:0.4 2:70 5:1 8:1 12:1185732 13:1 20:47 21:16 22:12 23:2021
300 0:43 1:0.4 2:54.99999999999999 5:1 8:1 12:1185732 13:1 20:38 21:7 22:8 23:2021
128 0:30 1:0.42 2:49 3:1 8:1 12:1185732 13:1 19:1 20:28 21:17 22:12 23:2021
41 0:4 1:0.46 2:48 6:1 8:1 12:1185732 13:1 18:1 20:19 21:21 22:11 23:2021
88 0:20 1:0.45 2:50 7:1 8:1 12:1185732 13:1 18:1 20:6 21:3 22:12 23:2021
31 0:43 1:0.4 2:45 8:1 12:1185732 13:1 18:1 20:38 21:7 22:8 23:2021
85 0:40 1:0.41 2:47 3:1 8:1 12:1185732 13:1 19:1 20:37 21:28 22:12 23:2021
345 0:30 1:0.3 2:65.00000000000001 7:1 8:1 12:1185732 13:1 19:1 20:28 21:18 22:11 23:2021
230 0:35 1:0.48 2:46 6:1 8:1 12:1185732 13:1 18:1 20:31 21:9 22:2 23:2020
39 0:43 1:0.43 2:29 7:1 8:1 12:1185732 13:1 19:1 20:38 21:6 22:9 23:2021
63 0:51 1:0.45 2:50 8:1 12:1185732 13:1 18:1 20:7 21:14 22:8 23:2021
63 0:20 1:0.54 2:33 5:1 8:1 12:1185732 13:1 18:1 20:6 21:10 22:1 23:2021
72 0:40 1:0.4299999999999999 2:43 7:1 8:1 12:1185732 13:1 19:1 20:37 21:29 22:11 23:2021
136 0:43 1:0.42 2:38 5:1 8:1 12:1185732 13:1 19:1 20:38 21:6 22:7 23:2021
38 0:40 1:0.49 2:47 3:1 8:1 12:1185732 13:1 18:1 20:37 21:4 22:11 23:2021
445 0:43 1:0.35 2:35 4:1 8:1 12:1185732 13:1 20:38 21:6 22:3 23:2021
300 0:4 1:0.3 2:54.99999999999999 5:1 8:1 12:1185732 13:1 20:19 21:22 22:6 23:2021
850 0:35 1:0.35 2:45 6:1 8:1 12:1185732 13:1 20:31 21:4 22:1 23:2020
62 0:40 1:0.46 2:43 6:1 8:1 12:1185732 13:1 19:1 20:37 21:6 22:12 23:2021
47 0:43 1:0.43 2:29 6:1 8:1 12:1185732 13:1 19:1 20:38 21:7 22:8 23:2021
125 0:10 1:0.3 2:45 8:1 12:1185732 13:1 20:47 21:24 22:1 23:2021
115 0:30 1:0.55 2:59 3:1 8:1 12:1185732 13:1 18:1 20:28 21:17 22:12 23:2021
44 0:40 1:0.51 2:56 6:1 8:1 12:1185732 13:1 18:1 20:37 21:24 22:12 23:2021
250 0:51 1:0.4 2:45 6:1 8:1 12:1185732 13:1 20:7 21:14 22:8 23:2021
200 0:40 1:0.35 2:65 8:1 12:1185732 13:1 19:1 20:37 21:1 22:12 23:2021
245 0:35 1:0.45 2:59 8:1 12:1185732 13:1 18:1 20:31 21:10 22:2 23:2020
1100 0:35 1:0.25 2:65 5:1 8:1 12:1185732 13:1 19:1 20:31 21:15 22:3 23:2020
325 0:35 1:0.61 2:58 4:1 8:1 12:1185732 13:1 18:1 20:31 21:16 22:3 23:2020
200 0:51 1:0.4 2:55.00000000000001 7:1 8:1 12:1185732 13:1 20:7 21:15 22:10 23:2021
315 0:35 1:0.33 2:35 3:1 8:1 12:1185732 13:1 19:1 20:31 21:1 22:2 23:2020
175 0:40 1:0.4 2:60.00000000000001 6:1 8:1 12:1185732 13:1 19:1 20:37 21:30 22:12 23:2021
51 0:30 1:0.28 2:33 6:1 8:1 12:1185732 13:1 19:1 20:28 21:24 22:1 23:2021
200 0:43 1:0.4 2:35 5:1 8:1 12:1185732 13:1 20:38 21:7 22:4 23:2021
44 0:51 1:0.5 2:52 6:1 8:1 12:1185732 13:1 18:1 20:7 21:15 22:10 23:2021
24 0:40 1:0.38 2:36 6:1 8:1 12:1185732 13:1 19:1 20:37 21:12 22:11 23:2021
286 0:35 1:0.4 2:61 5:1 8:1 12:1185732 13:1 18:1 20:31 21:15 22:3 23:2020
150 0:4 1:0.3 2:49.99999999999999 8:1 12:1185732 13:1 20:19 21:22 22:6 23:2021
200 0:43 1:0.4 2:54.99999999999999 5:1 8:1 12:1185732 13:1 20:38 21:6 22:9 23:2021
545 0:51 1:0.35 2:40 4:1 8:1 12:1185732 13:1 20:7 21:13 22:3 23:2021
278 0:35 1:0.34 2:46 8:1 12:1185732 13:1 19:1 20:31 21:14 22:3 23:2020
104 0:51 1:0.55 2:54 5:1 8:1 12:1185732 13:1 18:1 20:7 21:13 22:5 23:2021
400 0:20 1:0.35 2:70 5:1 8:1 12:1185732 13:1 20:6 21:3 22:12 23:2021
225 0:43 1:0.3 2:49.99999999999999 8:1 12:1185732 13:1 20:38 21:6 22:7 23:2021
54 0:40 1:0.45 2:25 7:1 8:1 12:1185732 13:1 19:1 20:37 21:30 22:10 23:2021
140 0:40 1:0.5700000000000001 2:35 4:1 8:1 12:1185732 13:1 19:1 20:37 21:9 22:11 23:2021
400 0:35 1:0.52 2:47 4:1 8:1 12:1185732 13:1 19:1 20:31 21:4 22:3 23:2020
60 0:40 1:0.47 2:55 3:1 8:1 12:1185732 13:1 18:1 20:37 21:22 22:12 23:2021
50 0:40 1:0.45 2:41 7:1 8:1 12:1185732 13:1 18:1 20:37 21:11 22:12 23:2021
650 0:51 1:0.35 2:54.99999999999999 4:1 8:1 12:1185732 13:1 20:7 21:15 22:6 23:2021
175 0:4 1:0.4 2:35 6:1 8:1 12:1185732 13:1 20:19 21:17 22:1 23:2021
81 0:40 1:0.42 2:65 5:1 8:1 12:1185732 13:1 18:1 20:37 21:26 22:11 23:2021
900 0:35 1:0.3 2:50 3:1 8:1 12:1185732 13:1 19:1 20:31 21:1 22:2 23:2020
114 0:30 1:0.35 2:51 7:1 8:1 12:1185732 13:1 19:1 20:28 21:18 22:11 23:2021
200 0:43 1:0.4 2:40 7:1 8:1 12:1185732 13:1 20:38 21:6 22:5 23:2021
259 0:35 1:0.4 2:50 3:1 8:1 12:1185732 13:1 18:1 20:31 21:7 22:2 23:2020
550 0:43 1:0.35 2:49.99999999999999 4:1 8:1 12:1185732 13:1 20:38 21:7 22:8 23:2021
315 0:35 1:0.36 2:35 3:1 8:1 12:1185732 13:1 19:1 20:31 21:26 22:1 23:2020
24 0:20 1:0.46 2:24 6:1 8:1 12:1185732 13:1 19:1 20:6 21:10 22:1 23:2021
56 0:40 1:0.47 2:39 6:1 8:1 12:1185732 13:1 19:1 20:37 21:30 22:11 23:2021
175 0:51 1:0.3 2:50 8:1 12:1185732 13:1 20:7 21:13 22:3 23:2021
68 0:43 1:0.34 2:33 8:1 12:1185732 13:1 19:1 20:38 21:6 22:7 23:2021
125 0:40 1:0.35 2:54.99999999999999 8:1 12:1185732 13:1 19:1 20:37 21:26 22:10 23:2021
123 0:30 1:0.37 2:50 8:1 12:1185732 13:1 19:1 20:28 21:17 22:12 23:2021
85 0:51 1:0.53 2:43 7:1 8:1 12:1185732 13:1 18:1 20:7 21:15 22:6 23:2021
70 0:43 1:0.46 2:26 6:1 8:1 12:1185732 13:1 19:1 20:38 21:8 22:6 23:2021
162 0:20 1:0.4 2:24 4:1 8:1 12:1185732 13:1 19:1 20:6 21:8 22:2 23:2021
114 0:43 1:0.37 2:32 3:1 8:1 12:1185732 13:1 19:1 20:38 21:6 22:7 23:2021
260 0:35 1:0.42 2:47 3:1 8:1 12:1185732 13:1 18:1 20:31 21:2 22:1 23:2020
75 0:43 1:0.3 2:45 8:1 12:1185732 13:1 20:38 21:6 22:3 23:2021
125 0:4 1:0.3 2:60 8:1 12:1185732 13:1 20:19 21:21 22:11 23:2021
143 0:40 1:0.6100000000000001 2:53 4:1 8:1 12:1185732 13:1 19:1 20:37 21:27 22:12 23:2021
175 0:40 1:0.4 2:55.00000000000001 6:1 8:1 12:1185732 13:1 19:1 20:37 21:30 22:11 23:2021
75 0:40 1:0.47 2:54 3:1 8:1 12:1185732 13:1 18:1 20:37 21:4 22:12 23:2021
400 0:51 1:0.4 2:60 5:1 8:1 12:1185732 13:1 20:7 21:13 22:5 23:2021
150 0:4 1:0.35 2:40 6:1 8:1 12:1185732 13:1 20:19 21:22 22:6 23:2021
225 0:20 1:0.35 2:35 3:1 8:1 12:1185732 13:1 20:6 21:10 22:1 23:2021
315 0:35 1:0.38 2:28 7:1 8:1 12:1185732 13:1 19:1 20:31 21:2 22:2 23:2020
64 0:30 1:0.28 2:50 8:1 12:1185732 13:1 19:1 20:28 21:24 22:1 23:2021
175 0:40 1:0.4 2:55.00000000000001 7:1 8:1 12:1185732 13:1 19:1 20:37 21:23 22:11 23:2021
41 0:40 1:0.41 2:42 8:1 12:1185732 13:1 19:1 20:37 21:26 22:10 23:2021
200 0:40 1:0.35 2:60.00000000000001 3:1 8:1 12:1185732 13:1 19:1 20:37 21:22 22:12 23:2021
103 0:20 1:0.37 2:36 7:1 8:1 12:1185732 13:1 19:1 20:6 21:4 22:11 23:2021
60 0:30 1:0.33 2:52 7:1 8:1 12:1185732 13:1 19:1 20:28 21:19 22:10 23:2021
98 0:40 1:0.42 2:64 5:1 8:1 12:1185732 13:1 18:1 20:37 21:2 22:12 23:2021
58 0:43 1:0.52 2:37 6:1 8:1 12:1185732 13:1 18:1 20:38 21:6 22:7 23:2021
325 0:51 1:0.35 2:50 3:1 8:1 12:1185732 13:1 20:7 21:13 22:9 23:2021
323 0:35 1:0.38 2:32 7:1 8:1 12:1185732 13:1 19:1 20:31 21:21 22:1 23:2020
54 0:40 1:0.4299999999999999 2:42 7:1 8:1 12:1185732 13:1 19:1 20:37 21:23 22:11 23:2021
111 0:43 1:0.5 2:34 4:1 8:1 12:1185732 13:1 18:1 20:38 21:6 22:3 23:2021
75 0:43 1:0.4 2:50 6:1 8:1 12:1185732 13:1 20:38 21:8 22:10 23:2021
63 0:51 1:0.5 2:41 6:1 8:1 12:1185732 13:1 18:1 20:7 21:14 22:8 23:2021
47 0:40 1:0.46 2:63 8:1 12:1185732 13:1 18:1 20:37 21:31 22:12 23:2021
120 0:20 1:0.37 2:52 5:1 8:1 12:1185732 13:1 19:1 20:6 21:3 22:12 23:2021
23 0:43 1:0.45 2:39 6:1 8:1 12:1185732 13:1 19:1 20:38 21:8 22:10 23:2021
99 0:40 1:0.39 2:45 3:1 8:1 12:1185732 13:1 19:1 20:37 21:28 22:11 23:2021
182 0:43 1:0.41 2:38 4:1 8:1 12:1185732 13:1 19:1 20:38 21:7 22:8 23:2021
950 0:35 1:0.35 2:50 7:1 8:1 12:1185732 13:1 19:1 20:31 21:18 22:3 23:2020
51 0:43 1:0.52 2:23 7:1 8:1 12:1185732 13:1 18:1 20:38 21:6 22:3 23:2021
108 0:30 1:0.42 2:62 7:1 8:1 12:1185732 13:1 18:1 20:28 21:17 22:12 23:2021
1200 0:35 1:0.5 2:50 4:1 8:1 12:1185732 13:1 20:31 21:1 22:1 23:2020
225 0:20 1:0.4 2:35 5:1 8:1 12:1185732 13:1 20:6 21:10 22:1 23:2021
325 0:51 1:0.4 2:40 5:1 8:1 12:1185732 13:1 20:7 21:15 22:2 23:2021
124 0:40 1:0.53 2:47 4:1 8:1 12:1185732 13:1 19:1 20:37 21:15 22:12 23:2021
1000 0:35 1:0.3 2:55.00000000000001 3:1 8:1 12:1185732 13:1 19:1 20:31 21:5 22:3 23:2020
44 0:51 1:0.51 2:32 6:1 8:1 12:1185732 13:1 18:1 20:7 21:14 22:4 23:2021
176 0:10 1:0.52 2:60 4:1 8:1 12:1185732 13:1 18:1 20:47 21:16 22:12 23:2021
53 0:40 1:0.47 2:43 6:1 8:1 12:1185732 13:1 19:1 20:37 21:24 22:11 23:2021
75 0:40 1:0.3 2:60 8:1 12:1185732 13:1 19:1 20:37 21:13 22:11 23:2021
90 0:43 1:0.49 2:41 3:1 8:1 12:1185732 13:1 18:1 20:38 21:8 22:6 23:2021
281 0:35 1:0.36 2:44 8:1 12:1185732 13:1 19:1 20:31 21:4 22:2 23:2020
313 0:35 1:0.62 2:46 4:1 8:1 12:1185732 13:1 18:1 20:31 21:7 22:1 23:2020
300 0:40 1:0.35 2:60.00000000000001 3:1 8:1 12:1185732 13:1 19:1 20:37 21:4 22:12 23:2021
315 0:35 1:0.33 2:39 3:1 8:1 12:1185732 13:1 19:1 20:31 21:8 22:1 23:2020
1250 0:35 1:0.5 2:60 4:1 8:1 12:1185732 13:1 19:1 20:31 21:4 22:3 23:2020
300 0:40 1:0.35 2:60.00000000000001 3:1 8:1 12:1185732 13:1 19:1 20:37 21:28 22:11 23:2021
250 0:43 1:0.4 2:40 7:1 8:1 12:1185732 13:1 20:38 21:6 22:7 23:2021
325 0:51 1:0.4 2:45 7:1 8:1 12:1185732 13:1 20:7 21:15 22:6 23:2021
111 0:43 1:0.38 2:31 3:1 8:1 12:1185732 13:1 19:1 20:38 21:7 22:8 23:2021
20 0:40 1:0.4 2:58 8:1 12:1185732 13:1 18:1 20:37 21:7 22:11 23:2021
525 0:51 1:0.35 2:40 4:1 8:1 12:1185732 13:1 20:7 21:14 22:4 23:2021
8 0:43 1:0.47 2:20 6:1 8:1 12:1185732 13:1 19:1 20:38 21:6 22:3 23:2021
950 0:35 1:0.25 2:50 5:1 8:1 12:1185732 13:1 19:1 20:31 21:30 22:1 23:2020
53 0:40 1:0.45 2:40 6:1 8:1 12:1185732 13:1 19:1 20:37 21:30 22:12 23:2021
225 0:40 1:0.4 2:55.00000000000001 7:1 8:1 12:1185732 13:1 19:1 20:37 21:5 22:12 23:2021
295 0:20 1:0.3 2:55.00000000000001 7:1 8:1 12:1185732 13:1 20:6 21:4 22:11 23:2021
314 0:35 1:0.37 2:37 7:1 8:1 12:1185732 13:1 19:1 20:31 21:18 22:3 23:2020
72 0:4 1:0.42 2:61 5:1 8:1 12:1185732 13:1 18:1 20:19 21:20 22:12 23:2021
125 0:43 1:0.3 2:45 8:1 12:1185732 13:1 20:38 21:8 22:2 23:2021
195 0:40 1:0.4 2:60.00000000000001 7:1 8:1 12:1185732 13:1 19:1 20:37 21:23 22:12 23:2021
297 0:35 1:0.38 2:38 6:1 8:1 12:1185732 13:1 19:1 20:31 21:7 22:3 23:2020
44 0:40 1:0.5 2:52 7:1 8:1 12:1185732 13:1 18:1 20:37 21:23 22:11 23:2021
44 0:43 1:0.42 2:16 7:1 8:1 12:1185732 13:1 19:1 20:38 21:7 22:4 23:2021
63 0:10 1:0.46 2:24 7:1 8:1 12:1185732 13:1 18:1 20:47 21:24 22:1 23:2021
104 0:30 1:0.45 2:63 7:1 8:1 12:1185732 13:1 18:1 20:28 21:18 22:11 23:2021
128 0:30 1:0.36 2:47 7:1 8:1 12:1185732 13:1 19:1 20:28 21:17 22:12 23:2021
99 0:30 1:0.44 2:44 3:1 8:1 12:1185732 13:1 19:1 20:28 21:19 22:10 23:2021
350 0:10 1:0.4 2:35 3:1 8:1 12:1185732 13:1 20:47 21:17 22:11 23:2021
36 0:40 1:0.45 2:54 8:1 12:1185732 13:1 18:1 20:37 21:26 22:10 23:2021
65 0:43 1:0.55 2:39 7:1 8:1 12:1185732 13:1 18:1 20:38 21:8 22:6 23:2021
65 0:51 1:0.41 2:45 8:1 12:1185732 13:1 18:1 20:7 21:15 22:2 23:2021
119 0:40 1:0.67 2:42 4:1 8:1 12:1185732 13:1 18:1 20:37 21:28 22:10 23:2021
60 0:43 1:0.46 2:31 6:1 8:1 12:1185732 13:1 19:1 20:38 21:6 22:7 23:2021
46 0:40 1:0.46 2:61 8:1 12:1185732 13:1 18:1 20:37 21:7 22:12 23:2021
46 0:43 1:0.4 2:49 8:1 12:1185732 13:1 18:1 20:38 21:6 22:5 23:2021
105 0:20 1:0.46 2:37 3:1 8:1 12:1185732 13:1 19:1 20:6 21:4 22:11 23:2021
300 0:30 1:0.3 2:75.00000000000001 8:1 12:1185732 13:1 19:1 20:28 21:18 22:11 23:2021
225 0:51 1:0.3 2:54.99999999999999 8:1 12:1185732 13:1 20:7 21:14 22:8 23:2021
200 0:40 1:0.4 2:55.00000000000001 6:1 8:1 12:1185732 13:1 19:1 20:37 21:6 22:12 23:2021
63 0:40 1:0.39 2:60 5:1 8:1 12:1185732 13:1 18:1 20:37 21:20 22:12 23:2021
225 0:4 1:0.3 2:50 8:1 12:1185732 13:1 20:19 21:17 22:1 23:2021
319 0:35 1:0.6 2:59 4:1 8:1 12:1185732 13:1 18:1 20:31 21:10 22:3 23:2020
125 0:40 1:0.35 2:54.99999999999999 8:1 12:1185732 13:1 19:1 20:37 21:1 22:11 23:2021
150 0:40 1:0.35 2:55.00000000000001 7:1 8:1 12:1185732 13:1 19:1 20:37 21:17 22:11 23:2021
300 0:51 1:0.4 2:45 6:1 8:1 12:1185732 13:1 20:7 21:15 22:6 23:2021
56 0:40 1:0.39 2:46 8:1 12:1185732 13:1 19:1 20:37 21:31 22:12 23:2021
175 0:40 1:0.35 2:70 8:1 12:1185732 13:1 19:1 20:37 21:31 22:12 23:2021
48 0:40 1:0.39 2:51 8:1 12:1185732 13:1 19:1 20:37 21:25 22:12 23:2021
119 0:51 1:0.45 2:47 3:1 8:1 12:1185732 13:1 18:1 20:7 21:13 22:7 23:2021
77 0:10 1:0.5 2:32 7:1 8:1 12:1185732 13:1 18:1 20:47 21:17 22:11 23:2021
58 0:43 1:0.41 2:48 8:1 12:1185732 13:1 18:1 20:38 21:8 22:6 23:2021
65 0:43 1:0.53 2:33 5:1 8:1 12:1185732 13:1 18:1 20:38 21:8 22:2 23:2021
400 0:51 1:0.35 2:50 3:1 8:1 12:1185732 13:1 20:7 21:15 22:6 23:2021
81 0:4 1:0.5 2:38 3:1 8:1 12:1185732 13:1 18:1 20:19 21:17 22:1 23:2021
44 0:43 1:0.52 2:39 6:1 8:1 12:1185732 13:1 18:1 20:38 21:6 22:5 23:2021
46 0:40 1:0.52 2:34 7:1 8:1 12:1185732 13:1 18:1 20:37 21:30 22:10 23:2021
333 0:35 1:0.27 2:39 5:1 8:1 12:1185732 13:1 19:1 20:31 21:5 22:2 23:2020
51 0:40 1:0.54 2:36 7:1 8:1 12:1185732 13:1 18:1 20:37 21:5 22:11 23:2021
32 0:43 1:0.46 2:30 6:1 8:1 12:1185732 13:1 19:1 20:38 21:6 22:9 23:2021
275 0:40 1:0.3 2:75 5:1 8:1 12:1185732 13:1 19:1 20:37 21:1 22:1 23:2020
54 0:40 1:0.33 2:40 3:1 8:1 12:1185732 13:1 19:1 20:37 21:16 22:11 23:2021
525 0:51 1:0.35 2:54.99999999999999 4:1 8:1 12:1185732 13:1 20:7 21:13 22:9 23:2021
78 0:20 1:0.45 2:60 8:1 12:1185732 13:1 18:1 20:6 21:3 22:12 23:2021
96 0:30 1:0.34 2:59 8:1 12:1185732 13:1 19:1 20:28 21:18 22:11 23:2021
325 0:43 1:0.35 2:45 3:1 8:1 12:1185732 13:1 20:38 21:6 22:7 23:2021
56 0:43 1:0.49 2:46 3:1 8:1 12:1185732 13:1 18:1 20:38 21:8 22:10 23:2021
95 0:40 1:0.43 2:64 5:1 8:1 12:1185732 13:1 18:1 20:37 21:8 22:12 23:2021
100 0:40 1:0.35 2:50 6:1 8:1 12:1185732 13:1 19:1 20:37 21:18 22:12 23:2021
116 0:20 1:0.39 2:52 5:1 8:1 12:1185732 13:1 19:1 20:6 21:4 22:11 23:2021
275 0:4 1:0.3 2:64.99999999999999 5:1 8:1 12:1185732 13:1 20:19 21:20 22:12 23:2021
105 0:51 1:0.5 2:42 7:1 8:1 12:1185732 13:1 18:1 20:7 21:14 22:8 23:2021
247 0:35 1:0.46 2:41 6:1 8:1 12:1185732 13:1 18:1 20:31 21:4 22:1 23:2020
81 0:51 1:0.52 2:41 7:1 8:1 12:1185732 13:1 18:1 20:7 21:13 22:5 23:2021
850 0:35 1:0.35 2:50 6:1 8:1 12:1185732 13:1 19:1 20:31 21:9 22:2 23:2020
39 0:40 1:0.53 2:52 6:1 8:1 12:1185732 13:1 18:1 20:37 21:24 22:11 23:2021
27 0:43 1:0.54 2:39 6:1 8:1 12:1185732 13:1 18:1 20:38 21:6 22:9 23:2021
243 0:35 1:0.43 2:58 8:1 12:1185732 13:1 18:1 20:31 21:23 22:1 23:2020
175 0:30 1:0.3 2:75.00000000000001 8:1 12:1185732 13:1 19:1 20:28 21:19 22:10 23:2021
925 0:35 1:0.3 2:50 3:1 8:1 12:1185732 13:1 19:1 20:31 21:26 22:1 23:2020
60 0:51 1:0.51 2:41 6:1 8:1 12:1185732 13:1 18:1 20:7 21:13 22:9 23:2021
156 0:43 1:0.37 2:26 4:1 8:1 12:1185732 13:1 19:1 20:38 21:6 22:3 23:2021
51 0:43 1:0.54 2:32 5:1 8:1 12:1185732 13:1 18:1 20:38 21:6 22:3 23:2021
850 0:35 1:0.3 2:60 8:1 12:1185732 13:1 19:1 20:31 21:29 22:1 23:2020
105 0:30 1:0.32 2:41 5:1 8:1 12:1185732 13:1 19:1 20:28 21:24 22:1 23:2021
150 0:40 1:0.52 2:44 4:1 8:1 12:1185732 13:1 19:1 20:37 21:15 22:11 23:2021
375 0:43 1:0.35 2:54.99999999999999 4:1 8:1 12:1185732 13:1 20:38 21:8 22:10 23:2021
112 0:20 1:0.46 2:67 5:1 8:1 12:1185732 13:1 18:1 20:6 21:3 22:12 23:2021
111 0:43 1:0.49 2:32 4:1 8:1 12:1185732 13:1 18:1 20:38 21:7 22:4 23:2021
270 0:35 1:0.37 2:35 6:1 8:1 12:1185732 13:1 19:1 20:31 21:13 22:3 23:2020
225 0:10 1:0.3 2:35 5:1 8:1 12:1185732 13:1 20:47 21:24 22:1 23:2021
44 0:4 1:0.5 2:37 6:1 8:1 12:1185732 13:1 18:1 20:19 21:22 22:6 23:2021
81 0:4 1:0.51 2:36 5:1 8:1 12:1185732 13:1 18:1 20:19 21:17 22:1 23:2021
51 0:40 1:0.42 2:27 7:1 8:1 12:1185732 13:1 19:1 20:37 21:11 22:11 23:2021
54 0:40 1:0.39 2:46 8:1 12:1185732 13:1 19:1 20:37 21:7 22:12 23:2021
27 0:40 1:0.43 2:56 8:1 12:1185732 13:1 18:1 20:37 21:19 22:12 23:2021
261 0:35 1:0.44 2:46 3:1 8:1 12:1185732 13:1 18:1 20:31 21:8 22:1 23:2020
47 0:4 1:0.5 2:37 7:1 8:1 12:1185732 13:1 18:1 20:19 21:22 22:6 23:2021
296 0:35 1:0.35 2:37 3:1 8:1 12:1185732 13:1 19:1 20:31 21:7 22:2 23:2020
34 0:40 1:0.45 2:48 7:1 8:1 12:1185732 13:1 18:1 20:37 21:17 22:12 23:2021
47 0:4 1:0.55 2:32 6:1 8:1 12:1185732 13:1 18:1 20:19 21:17 22:1 23:2021
1050 0:35 1:0.25 2:65 5:1 8:1 12:1185732 13:1 19:1 20:31 21:9 22:3 23:2020
300 0:51 1:0.35 2:55.00000000000001 3:1 8:1 12:1185732 13:1 20:7 21:15 22:10 23:2021
450 0:10 1:0.4 2:55.00000000000001 3:1 8:1 12:1185732 13:1 20:47 21:16 22:12 23:2021
250 0:51 1:0.35 2:40 3:1 8:1 12:1185732 13:1 20:7 21:13 22:3 23:2021
94 0:51 1:0.41 2:51 8:1 12:1185732 13:1 18:1 20:7 21:13 22:7 23:2021
347 0:35 1:0.32 2:46 5:1 8:1 12:1185732 13:1 19:1 20:31 21:9 22:3 23:2020
78 0:30 1:0.45 2:54 5:1 8:1 12:1185732 13:1 18:1 20:28 21:24 22:1 23:2021
33 0:43 1:0.36 2:34 8:1 12:1185732 13:1 19:1 20:38 21:6 22:9 23:2021
98 0:30 1:0.52 2:62 3:1 8:1 12:1185732 13:1 18:1 20:28 21:18 22:11 23:2021
52 0:4 1:0.4 2:60 5:1 8:1 12:1185732 13:1 18:1 20:19 21:22 22:10 23:2021
475 0:40 1:0.55 2:70 4:1 8:1 12:1185732 13:1 19:1 20:37 21:27 22:12 23:2021
475 0:20 1:0.35 2:35 4:1 8:1 12:1185732 13:1 20:6 21:8 22:2 23:2021
300 0:20 1:0.4 2:55.00000000000001 3:1 8:1 12:1185732 13:1 20:6 21:4 22:11 23:2021
83 0:40 1:0.32 2:53 5:1 8:1 12:1185732 13:1 19:1 20:37 21:1 22:1 23:2020
150 0:40 1:0.3 2:50 3:1 8:1 12:1185732 13:1 19:1 20:37 21:10 22:11 23:2021
225 0:10 1:0.35 2:35 3:1 8:1 12:1185732 13:1 20:47 21:24 22:1 23:2021
88 0:30 1:0.44 2:62 6:1 8:1 12:1185732 13:1 18:1 20:28 21:17 22:12 23:2021
100 0:10 1:0.51 2:64 5:1 8:1 12:1185732 13:1 18:1 20:47 21:17 22:11 23:2021
400 0:40 1:0.5 2:60 4:1 8:1 12:1185732 13:1 19:1 20:37 21:15 22:12 23:2021
59 0:10 1:0.4 2:33 5:1 8:1 12:1185732 13:1 18:1 20:47 21:24 22:1 23:2021
243 0:35 1:0.46 2:46 6:1 8:1 12:1185732 13:1 18:1 20:31 21:13 22:3 23:2020
25 0:43 1:0.4 2:30 6:1 8:1 12:1185732 13:1 20:38 21:6 22:3 23:2021
305 0:35 1:0.39 2:64 5:1 8:1 12:1185732 13:1 18:1 20:31 21:9 22:3 23:2020
375 0:40 1:0.55 2:70 4:1 8:1 12:1185732 13:1 19:1 20:37 21:21 22:12 23:2021
150 0:43 1:0.4 2:40 6:1 8:1 12:1185732 13:1 20:38 21:7 22:8 23:2021
150 0:43 1:0.35 2:35 3:1 8:1 12:1185732 13:1 20:38 21:6 22:3 23:2021
575 0:30 1:0.35 2:55.00000000000001 4:1 8:1 12:1185732 13:1 19:1 20:28 21:22 22:2 23:2021
29 0:43 1:0.52 2:45 7:1 8:1 12:1185732 13:1 18:1 20:38 21:8 22:10 23:2021
350 0:20 1:0.35 2:70 5:1 8:1 12:1185732 13:1 20:6 21:4 22:11 23:2021
162 0:40 1:0.52 2:46 4:1 8:1 12:1185732 13:1 19:1 20:37 21:9 22:12 23:2021
215 0:35 1:0.42 2:56 8:1 12:1185732 13:1 18:1 20:31 21:4 22:2 23:2020
150 0:51 1:0.4 2:35 6:1 8:1 12:1185732 13:1 20:7 21:14 22:4 23:2021
275 0:40 1:0.35 2:60.00000000000001 3:1 8:1 12:1185732 13:1 19:1 20:37 21:28 22:12 23:2021
352 0:35 1:0.27 2:47 5:1 8:1 12:1185732 13:1 19:1 20:31 21:15 22:3 23:2020
289 0:35 1:0.32 2:43 8:1 12:1185732 13:1 19:1 20:31 21:29 22:1 23:2020
40 0:43 1:0.36 2:37 8:1 12:1185732 13:1 19:1 20:38 21:7 22:8 23:2021
61 0:40 1:0.5499999999999999 2:54 7:1 8:1 12:1185732 13:1 18:1 20:37 21:5 22:12 23:2021
45 0:51 1:0.45 2:47 8:1 12:1185732 13:1 18:1 20:7 21:14 22:4 23:2021
225 0:40 1:0.3 2:50 3:1 8:1 12:1185732 13:1 19:1 20:37 21:16 22:12 23:2021
60 0:43 1:0.54 2:39 7:1 8:1 12:1185732 13:1 18:1 20:38 21:6 22:5 23:2021
525 0:40 1:0.55 2:65 4:1 8:1 12:1185732 13:1 19:1 20:37 21:3 22:12 23:2021
75 0:10 1:0.35 2:30 6:1 8:1 12:1185732 13:1 20:47 21:24 22:1 23:2021
350 0:4 1:0.4 2:60 4:1 8:1 12:1185732 13:1 20:19 21:21 22:11 23:2021
65 0:40 1:0.53 2:55 7:1 8:1 12:1185732 13:1 18:1 20:37 21:29 22:12 23:2021
85 0:40 1:0.39 2:41 3:1 8:1 12:1185732 13:1 19:1 20:37 21:22 22:11 23:2021
270 0:35 1:0.41 2:54 3:1 8:1 12:1185732 13:1 18:1 20:31 21:5 22:3 23:2020
167 0:43 1:0.45 2:46 4:1 8:1 12:1185732 13:1 18:1 20:38 21:6 22:7 23:2021
122 0:40 1:0.63 2:46 4:1 8:1 12:1185732 13:1 18:1 20:37 21:9 22:11 23:2021
950 0:35 1:0.35 2:40 7:1 8:1 12:1185732 13:1 19:1 20:31 21:27 22:1 23:2020
54 0:30 1:0.44 2:59 7:1 8:1 12:1185732 13:1 18:1 20:28 21:19 22:10 23:2021
91 0:40 1:0.34 2:40 3:1 8:1 12:1185732 13:1 19:1 20:37 21:10 22:12 23:2021
66 0:40 1:0.4399999999999999 2:47 7:1 8:1 12:1185732 13:1 19:1 20:37 21:23 22:12 23:2021
70 0:40 1:0.34 2:32 5:1 8:1 12:1185732 13:1 19:1 20:37 21:27 22:10 23:2021
53 0:40 1:0.37 2:38 7:1 8:1 12:1185732 13:1 19:1 20:37 21:17 22:11 23:2021
225 0:51 1:0.4 2:45 7:1 8:1 12:1185732 13:1 20:7 21:13 22:9 23:2021
87 0:20 1:0.42 2:53 6:1 8:1 12:1185732 13:1 18:1 20:6 21:3 22:12 23:2021
61 0:4 1:0.46 2:37 3:1 8:1 12:1185732 13:1 18:1 20:19 21:15 22:2 23:2021
225 0:4 1:0.35 2:50 7:1 8:1 12:1185732 13:1 20:19 21:20 22:12 23:2021
75 0:40 1:0.35 2:45 6:1 8:1 12:1185732 13:1 19:1 20:37 21:12 22:11 23:2021
78 0:43 1:0.45 2:27 7:1 8:1 12:1185732 13:1 19:1 20:38 21:6 22:7 23:2021
75 0:43 1:0.55 2:38 7:1 8:1 12:1185732 13:1 18:1 20:38 21:7 22:8 23:2021
58 0:43 1:0.37 2:32 3:1 8:1 12:1185732 13:1 19:1 20:38 21:6 22:5 23:2021
78 0:10 1:0.53 2:62 8:1 12:1185732 13:1 18:1 20:47 21:17 22:11 23:2021
225 0:43 1:0.4 2:40 7:1 8:1 12:1185732 13:1 20:38 21:8 22:6 23:2021
61 0:51 1:0.47 2:38 3:1 8:1 12:1185732 13:1 18:1 20:7 21:14 22:4 23:2021
300 0:35 1:0.62 2:45 4:1 8:1 12:1185732 13:1 18:1 20:31 21:31 22:1 23:2020
150 0:4 1:0.35 2:50 6:1 8:1 12:1185732 13:1 20:19 21:21 22:11 23:2021
17 0:43 1:0.45 2:21 6:1 8:1 12:1185732 13:1 19:1 20:38 21:7 22:4 23:2021
39 0:43 1:0.53 2:37 6:1 8:1 12:1185732 13:1 18:1 20:38 21:7 22:8 23:2021
65 0:43 1:0.52 2:37 7:1 8:1 12:1185732 13:1 18:1 20:38 21:6 22:7 23:2021
276 0:35 1:0.47 2:36 7:1 8:1 12:1185732 13:1 18:1 20:31 21:21 22:1 23:2020
40 0:40 1:0.37 2:39 8:1 12:1185732 13:1 19:1 20:37 21:1 22:11 23:2021
323 0:35 1:0.27 2:36 5:1 8:1 12:1185732 13:1 19:1 20:31 21:30 22:1 23:2020
69 0:40 1:0.45 2:55 3:1 8:1 12:1185732 13:1 18:1 20:37 21:28 22:12 23:2021
400 0:10 1:0.4 2:70 5:1 8:1 12:1185732 13:1 20:47 21:17 22:11 23:2021
372 0:35 1:0.54 2:33 4:1 8:1 12:1185732 13:1 19:1 20:31 21:31 22:1 23:2020
41 0:20 1:0.39 2:24 3:1 8:1 12:1185732 13:1 19:1 20:6 21:8 22:2 23:2021
200 0:43 1:0.3 2:49.99999999999999 8:1 12:1185732 13:1 20:38 21:8 22:6 23:2021
625 0:30 1:0.4 2:75.00000000000001 4:1 8:1 12:1185732 13:1 19:1 20:28 21:17 22:12 23:2021
240 0:35 1:0.4 2:31 6:1 8:1 12:1185732 13:1 19:1 20:31 21:28 22:1 23:2020
