138 0:14 1:0.55 2:23 7:1 12:1185732 18:1 20:34 21:9 22:9 23:2021
725 0:14 1:0.4 2:40.00000000000001 4:1 12:1185732 18:1 20:34 21:11 22:10 23:2021
500 0:14 1:0.4 2:40 4:1 12:1185732 18:1 20:34 21:22 22:1 23:2021
325 0:14 1:0.4 2:24.99999999999999 6:1 12:1185732 18:1 20:34 21:9 22:3 23:2021
113 0:14 1:0.51 2:24 6:1 12:1185732 18:1 20:34 21:9 22:9 23:2021
550 0:14 1:0.5 2:54.99999999999999 5:1 12:1185732 18:1 20:34 21:9 22:5 23:2021
52 0:14 1:0.47 2:46 12:1185732 18:1 20:34 21:22 22:1 23:2021
400 0:14 1:0.4 2:30.00000000000001 6:1 12:1185732 18:1 20:34 21:11 22:10 23:2021
154 0:14 1:0.46 2:59 12:1185732 18:1 20:34 21:9 22:7 23:2021
142 0:14 1:0.54 2:49 7:1 12:1185732 18:1 20:34 21:11 22:6 23:2021
137 0:14 1:0.65 2:34 5:1 12:1185732 18:1 20:34 21:10 22:4 23:2021
124 0:14 1:0.53 2:20 7:1 12:1185732 18:1 20:34 21:9 22:3 23:2021
300 0:14 1:0.35 2:40 3:1 12:1185732 18:1 20:34 21:22 22:1 23:2021
575 0:14 1:0.5 2:80 5:1 12:1185732 18:1 20:34 21:10 22:11 23:2021
228 0:14 1:0.5 2:61 4:1 12:1185732 18:1 20:34 21:10 22:8 23:2021
63 0:14 1:0.53 2:29 7:1 12:1185732 18:1 20:34 21:22 22:2 23:2021
150 0:14 1:0.47 2:62 12:1185732 18:1 20:34 21:11 22:6 23:2021
173 0:14 1:0.51 2:51 7:1 12:1185732 18:1 20:34 21:9 22:7 23:2021
138 0:14 1:0.46 2:41 3:1 12:1185732 18:1 20:34 21:11 22:6 23:2021
550 0:14 1:0.35 2:30.00000000000001 3:1 12:1185732 18:1 20:34 21:11 22:10 23:2021
116 0:14 1:0.5 2:32 7:1 12:1185732 18:1 20:34 21:10 22:11 23:2021
575 0:14 1:0.35 2:50.00000000000001 3:1 12:1185732 18:1 20:34 21:9 22:9 23:2021
78 0:14 1:0.47 2:38 3:1 12:1185732 18:1 20:34 21:22 22:1 23:2021
122 0:14 1:0.48 2:32 12:1185732 18:1 20:34 21:9 22:9 23:2021
138 0:14 1:0.47 2:29 3:1 12:1185732 18:1 20:34 21:11 22:10 23:2021
375 0:14 1:0.35 2:40.00000000000001 12:1185732 18:1 20:34 21:9 22:3 23:2021
500 0:14 1:0.35 2:55.00000000000001 12:1185732 18:1 20:34 21:10 22:8 23:2021
525 0:14 1:0.5 2:40 5:1 12:1185732 18:1 20:34 21:11 22:10 23:2021
169 0:14 1:0.52 2:34 4:1 12:1185732 18:1 20:34 21:10 22:11 23:2021
375 0:14 1:0.4 2:30 6:1 12:1185732 18:1 20:34 21:11 22:2 23:2021
81 0:14 1:0.54 2:37 5:1 12:1185732 18:1 20:34 21:22 22:1 23:2021
195 0:14 1:0.46 2:58 3:1 12:1185732 18:1 20:34 21:10 22:8 23:2021
126 0:14 1:0.46 2:49 12:1185732 18:1 20:34 21:9 22:5 23:2021
138 0:14 1:0.53 2:38 4:1 12:1185732 18:1 20:34 21:22 22:2 23:2021
300 0:14 1:0.4 2:40 5:1 12:1185732 18:1 20:34 21:22 22:1 23:2021
650 0:14 1:0.35 2:60.00000000000001 3:1 12:1185732 18:1 20:34 21:9 22:7 23:2021
550 0:14 1:0.5 2:40.00000000000001 5:1 12:1185732 18:1 20:34 21:9 22:9 23:2021
675 0:14 1:0.4 2:35.00000000000001 4:1 12:1185732 18:1 20:34 21:10 22:11 23:2021
475 0:14 1:0.4 2:40 7:1 12:1185732 18:1 20:34 21:9 22:5 23:2021
500 0:14 1:0.35 2:65 12:1185732 18:1 20:34 21:11 22:6 23:2021
450 0:14 1:0.35 2:30 3:1 12:1185732 18:1 20:34 21:9 22:3 23:2021
135 0:14 1:0.49 2:44 3:1 12:1185732 18:1 20:34 21:9 22:5 23:2021
725 0:14 1:0.4 2:30 4:1 12:1185732 18:1 20:34 21:10 22:4 23:2021
875 0:14 1:0.4 2:65 4:1 12:1185732 18:1 20:34 21:10 22:8 23:2021
181 0:14 1:0.63 2:69 5:1 12:1185732 18:1 20:34 21:9 22:7 23:2021
122 0:14 1:0.46 2:41 12:1185732 18:1 20:34 21:11 22:2 23:2021
650 0:14 1:0.35 2:60.00000000000001 3:1 12:1185732 18:1 20:34 21:10 22:8 23:2021
112 0:14 1:0.51 2:29 6:1 12:1185732 18:1 20:34 21:11 22:10 23:2021
173 0:14 1:0.47 2:47 3:1 12:1185732 18:1 20:34 21:9 22:9 23:2021
525 0:14 1:0.4 2:50 7:1 12:1185732 18:1 20:34 21:11 22:6 23:2021
475 0:14 1:0.4 2:20 7:1 12:1185732 18:1 20:34 21:9 22:3 23:2021
126 0:14 1:0.45 2:27 3:1 12:1185732 18:1 20:34 21:9 22:3 23:2021
158 0:14 1:0.51 2:41 6:1 12:1185732 18:1 20:34 21:10 22:8 23:2021
475 0:14 1:0.35 2:80.00000000000001 12:1185732 18:1 20:34 21:10 22:11 23:2021
181 0:14 1:0.47 2:60 3:1 12:1185732 18:1 20:34 21:9 22:12 23:2021
425 0:14 1:0.4 2:30.00000000000001 7:1 12:1185732 18:1 20:34 21:11 22:10 23:2021
725 0:14 1:0.5 2:70 5:1 12:1185732 18:1 20:34 21:9 22:7 23:2021
575 0:14 1:0.4 2:55.00000000000001 7:1 12:1185732 18:1 20:34 21:9 22:7 23:2021
138 0:14 1:0.62 2:37 5:1 12:1185732 18:1 20:34 21:9 22:9 23:2021
795 0:14 1:0.4 2:45 4:1 12:1185732 18:1 20:34 21:9 22:5 23:2021
800 0:14 1:0.4 2:49.99999999999999 4:1 12:1185732 18:1 20:34 21:11 22:6 23:2021
116 0:14 1:0.46 2:37 12:1185732 18:1 20:34 21:11 22:10 23:2021
143 0:14 1:0.51 2:39 7:1 12:1185732 18:1 20:34 21:9 22:5 23:2021
210 0:14 1:0.52 2:36 4:1 12:1185732 18:1 20:34 21:11 22:10 23:2021
195 0:14 1:0.47 2:56 3:1 12:1185732 18:1 20:34 21:9 22:7 23:2021
147 0:14 1:0.63 2:38 5:1 12:1185732 18:1 20:34 21:11 22:10 23:2021
770 0:14 1:0.4 2:30 4:1 12:1185732 18:1 20:34 21:9 22:3 23:2021
169 0:14 1:0.61 2:54 5:1 12:1185732 18:1 20:34 21:10 22:8 23:2021
42 0:14 1:0.5 2:34 6:1 12:1185732 18:1 20:34 21:22 22:1 23:2021
207 0:14 1:0.5 2:42 4:1 12:1185732 18:1 20:34 21:9 22:5 23:2021
550 0:14 1:0.35 2:65 12:1185732 18:1 20:34 21:9 22:7 23:2021
500 0:14 1:0.4 2:50 6:1 12:1185732 18:1 20:34 21:11 22:6 23:2021
252 0:14 1:0.52 2:63 4:1 12:1185732 18:1 20:34 21:9 22:7 23:2021
135 0:14 1:0.49 2:50 12:1185732 18:1 20:34 21:10 22:8 23:2021
250 0:14 1:0.4 2:30 7:1 12:1185732 18:1 20:34 21:22 22:2 23:2021
98 0:14 1:0.52 2:24 6:1 12:1185732 18:1 20:34 21:9 22:3 23:2021
150 0:14 1:0.4 2:35 6:1 12:1185732 18:1 20:34 21:22 22:1 23:2021
196 0:14 1:0.62 2:64 5:1 12:1185732 18:1 20:34 21:11 22:6 23:2021
450 0:14 1:0.35 2:45 12:1185732 18:1 20:34 21:11 22:2 23:2021
425 0:14 1:0.35 2:30 3:1 12:1185732 18:1 20:34 21:10 22:4 23:2021
525 0:14 1:0.4 2:55.00000000000001 6:1 12:1185732 18:1 20:34 21:9 22:7 23:2021
152 0:14 1:0.54 2:53 6:1 12:1185732 18:1 20:34 21:9 22:7 23:2021
123 0:14 1:0.55 2:38 6:1 12:1185732 18:1 20:34 21:9 22:5 23:2021
150 0:14 1:0.51 2:53 7:1 12:1185732 18:1 20:34 21:10 22:8 23:2021
450 0:14 1:0.4 2:25.00000000000001 6:1 12:1185732 18:1 20:34 21:9 22:9 23:2021
525 0:14 1:0.5 2:35 5:1 12:1185732 18:1 20:34 21:10 22:4 23:2021
500 0:14 1:0.35 2:45 3:1 12:1185732 18:1 20:34 21:9 22:5 23:2021
550 0:14 1:0.4 2:40 4:1 12:1185732 18:1 20:34 21:22 22:2 23:2021
300 0:14 1:0.4 2:30 7:1 12:1185732 18:1 20:34 21:22 22:1 23:2021
525 0:14 1:0.4 2:45 6:1 12:1185732 18:1 20:34 21:10 22:8 23:2021
675 0:14 1:0.5 2:70 5:1 12:1185732 18:1 20:34 21:11 22:6 23:2021
231 0:14 1:0.5 2:70 4:1 12:1185732 18:1 20:34 21:9 22:12 23:2021
900 0:14 1:0.4 2:65 4:1 12:1185732 18:1 20:34 21:9 22:7 23:2021
450 0:14 1:0.35 2:49.99999999999999 12:1185732 18:1 20:34 21:9 22:5 23:2021
200 0:14 1:0.35 2:49.99999999999999 12:1185732 18:1 20:34 21:22 22:1 23:2021
140 0:14 1:0.45 2:24 3:1 12:1185732 18:1 20:34 21:10 22:11 23:2021
