225 0:19 1:0.3 2:40 7:1 12:1185732 15:1 20:33 21:8 22:7 23:2021
203 0:38 1:0.53 2:19 4:1 12:1197831 15:1 18:1 20:26 21:1 22:8 23:2021
475 0:18 1:0.35 2:35 6:1 12:1185732 15:1 20:21 21:15 22:9 23:2021
51 0:19 1:0.44 2:27 7:1 12:1185732 15:1 18:1 20:33 21:10 22:9 23:2021
200 0:48 1:0.35 2:60 12:1185732 15:1 18:1 20:40 21:11 22:12 23:2021
120 0:18 1:0.45 2:43 7:1 12:1185732 15:1 18:1 20:21 21:16 22:11 23:2021
425 0:18 1:0.4 2:40 3:1 12:1185732 15:1 20:21 21:16 22:4 23:2021
175 0:19 1:0.35 2:44.99999999999999 12:1185732 15:1 18:1 20:33 21:9 22:2 23:2021
147 0:19 1:0.49 2:46 4:1 12:1185732 15:1 18:1 20:33 21:9 22:8 23:2021
250 0:48 1:0.3 2:50 7:1 12:1185732 15:1 18:1 20:40 21:11 22:12 23:2021
225 0:19 1:0.4 2:45 5:1 12:1185732 15:1 20:33 21:10 22:9 23:2021
900 0:18 1:0.5 2:60 4:1 12:1185732 15:1 20:21 21:15 22:7 23:2021
225 0:19 1:0.4 2:30 5:1 12:1185732 15:1 18:1 20:33 21:8 22:3 23:2021
44 0:19 1:0.41 2:28 6:1 12:1185732 15:1 18:1 20:33 21:10 22:9 23:2021
525 0:48 1:0.35 2:35 4:1 12:1185732 15:1 18:1 20:40 21:9 22:2 23:2021
104 0:48 1:0.49 2:53 4:1 12:1185732 15:1 18:1 20:40 21:12 22:11 23:2021
182 0:5 1:0.46 2:29 3:1 12:1197831 15:1 18:1 20:25 21:11 22:3 23:2021
325 0:19 1:0.4 2:55.00000000000001 5:1 12:1185732 15:1 20:33 21:9 22:6 23:2021
56 0:19 1:0.42 2:19 7:1 12:1185732 15:1 18:1 20:33 21:8 22:3 23:2021
126 0:18 1:0.5499999999999999 2:59 12:1185732 15:1 18:1 20:21 21:16 22:11 23:2021
575 0:18 1:0.3 2:45.00000000000001 7:1 12:1185732 15:1 20:21 21:16 22:8 23:2021
22 0:19 1:0.42 2:25 6:1 12:1185732 15:1 18:1 20:33 21:8 22:3 23:2021
138 0:18 1:0.67 2:33 5:1 12:1185732 15:1 18:1 20:21 21:17 22:2 23:2021
30 0:19 1:0.48 2:58 12:1185732 15:1 18:1 20:33 21:9 22:4 23:2021
158 0:18 1:0.48 2:43 6:1 12:1185732 15:1 18:1 20:21 21:17 22:6 23:2021
125 0:48 1:0.3 2:30 6:1 12:1185732 15:1 18:1 20:40 21:9 22:1 23:2021
795 0:18 1:0.5 2:50 4:1 12:1185732 15:1 20:21 21:15 22:5 23:2021
475 0:38 1:0.5 2:35 6:1 12:1197831 15:1 19:1 20:26 21:4 22:8 23:2021
216 0:18 1:0.61 2:34 4:1 12:1185732 15:1 18:1 20:21 21:15 22:3 23:2021
138 0:38 1:0.5499999999999999 2:28 7:1 12:1197831 15:1 18:1 20:26 21:3 22:8 23:2021
26 0:19 1:0.44 2:36 6:1 12:1185732 15:1 18:1 20:33 21:10 22:5 23:2021
250 0:19 1:0.4 2:54.99999999999999 5:1 12:1185732 15:1 20:33 21:10 22:5 23:2021
375 0:18 1:0.4 2:45.00000000000001 12:1185732 15:1 20:21 21:15 22:3 23:2021
91 0:18 1:0.48 2:29 6:1 12:1185732 15:1 18:1 20:21 21:15 22:3 23:2021
75 0:19 1:0.51 2:52 5:1 12:1185732 15:1 18:1 20:33 21:10 22:5 23:2021
91 0:19 1:0.54 2:51 5:1 12:1185732 15:1 18:1 20:33 21:9 22:6 23:2021
60 0:19 1:0.46 2:49 12:1185732 15:1 18:1 20:33 21:8 22:7 23:2021
75 0:48 1:0.52 2:64 5:1 12:1185732 15:1 18:1 20:40 21:11 22:12 23:2021
125 0:19 1:0.45 2:36 4:1 12:1185732 15:1 18:1 20:33 21:9 22:6 23:2021
152 0:13 1:0.51 2:34 6:1 12:1197831 15:1 18:1 20:12 21:14 22:8 23:2021
575 0:18 1:0.3 2:50 7:1 12:1185732 15:1 20:21 21:15 22:7 23:2021
63 0:19 1:0.52 2:28 5:1 12:1185732 15:1 18:1 20:33 21:8 22:3 23:2021
65 0:48 1:0.5 2:61 5:1 12:1185732 15:1 18:1 20:40 21:12 22:11 23:2021
500 0:18 1:0.3 2:35 7:1 12:1185732 15:1 20:21 21:15 22:9 23:2021
525 0:13 1:0.3 2:30 7:1 12:1197831 15:1 19:1 20:12 21:13 22:8 23:2021
135 0:5 1:0.5700000000000001 2:32 6:1 12:1197831 15:1 18:1 20:25 21:13 22:3 23:2021
74 0:48 1:0.44 2:32 3:1 12:1185732 15:1 18:1 20:40 21:9 22:1 23:2021
100 0:19 1:0.3 2:30 6:1 12:1185732 15:1 18:1 20:33 21:9 22:2 23:2021
138 0:38 1:0.64 2:33 6:1 12:1197831 15:1 18:1 20:26 21:4 22:8 23:2021
375 0:18 1:0.35 2:35 6:1 12:1185732 15:1 20:21 21:16 22:4 23:2021
550 0:18 1:0.4 2:60 12:1185732 15:1 20:21 21:15 22:7 23:2021
475 0:18 1:0.55 2:35 5:1 12:1185732 15:1 20:21 21:15 22:3 23:2021
500 0:5 1:0.35 2:30 7:1 12:1197831 15:1 19:1 20:25 21:12 22:3 23:2021
72 0:19 1:0.43 2:34 3:1 12:1185732 15:1 18:1 20:33 21:10 22:9 23:2021
41 0:19 1:0.42 2:19 7:1 12:1185732 15:1 18:1 20:33 21:9 22:4 23:2021
68 0:48 1:0.42 2:24 7:1 12:1185732 15:1 18:1 20:40 21:9 22:2 23:2021
145 0:18 1:0.5499999999999999 2:42 3:1 12:1185732 15:1 18:1 20:21 21:16 22:11 23:2021
600 0:18 1:0.4 2:40.00000000000001 3:1 12:1185732 15:1 20:21 21:15 22:9 23:2021
158 0:18 1:0.45 2:47 6:1 12:1185732 15:1 18:1 20:21 21:15 22:7 23:2021
30 0:19 1:0.45 2:29 6:1 12:1185732 15:1 18:1 20:33 21:9 22:2 23:2021
725 0:13 1:0.3 2:30 3:1 12:1197831 15:1 19:1 20:12 21:12 22:8 23:2021
126 0:18 1:0.5 2:42 6:1 12:1185732 15:1 18:1 20:21 21:15 22:5 23:2021
625 0:18 1:0.55 2:64.99999999999999 5:1 12:1185732 15:1 20:21 21:16 22:11 23:2021
175 0:48 1:0.35 2:44.99999999999999 12:1185732 15:1 18:1 20:40 21:9 22:1 23:2021
133 0:18 1:0.4 2:44 7:1 12:1185732 15:1 18:1 20:21 21:15 22:5 23:2021
263 0:18 1:0.64 2:55 4:1 12:1185732 15:1 18:1 20:21 21:16 22:8 23:2021
725 0:18 1:0.5 2:35 4:1 12:1185732 15:1 20:21 21:16 22:4 23:2021
525 0:19 1:0.35 2:50 4:1 12:1185732 15:1 20:33 21:9 22:8 23:2021
445 0:18 1:0.3 2:45.00000000000001 7:1 12:1185732 15:1 20:21 21:16 22:11 23:2021
675 0:18 1:0.55 2:65 5:1 12:1185732 15:1 20:21 21:17 22:6 23:2021
250 0:19 1:0.3 2:35.00000000000001 3:1 12:1185732 15:1 20:33 21:9 22:6 23:2021
700 0:5 1:0.35 2:20 4:1 12:1197831 15:1 19:1 20:25 21:10 22:3 23:2021
125 0:19 1:0.35 2:49.99999999999999 12:1185732 15:1 20:33 21:9 22:10 23:2021
73 0:19 1:0.41 2:36 3:1 12:1185732 15:1 18:1 20:33 21:9 22:10 23:2021
400 0:18 1:0.4 2:50 12:1185732 15:1 20:21 21:16 22:4 23:2021
575 0:18 1:0.55 2:50.00000000000001 5:1 12:1185732 15:1 20:21 21:15 22:9 23:2021
450 0:18 1:0.4 2:35 3:1 12:1185732 15:1 20:21 21:15 22:3 23:2021
75 0:48 1:0.43 2:45 3:1 12:1185732 15:1 18:1 20:40 21:11 22:12 23:2021
150 0:19 1:0.3 2:30 6:1 12:1185732 15:1 20:33 21:10 22:9 23:2021
275 0:48 1:0.3 2:35 3:1 12:1185732 15:1 18:1 20:40 21:9 22:1 23:2021
475 0:18 1:0.35 2:45.00000000000001 6:1 12:1185732 15:1 20:21 21:16 22:11 23:2021
75 0:19 1:0.3 2:25 6:1 12:1185732 15:1 18:1 20:33 21:8 22:3 23:2021
150 0:48 1:0.35 2:60 12:1185732 15:1 18:1 20:40 21:12 22:11 23:2021
500 0:18 1:0.4 2:45.00000000000001 3:1 12:1185732 15:1 20:21 21:16 22:11 23:2021
169 0:18 1:0.6900000000000001 2:59 5:1 12:1185732 15:1 18:1 20:21 21:16 22:11 23:2021
300 0:19 1:0.3 2:45.00000000000001 3:1 12:1185732 15:1 20:33 21:8 22:7 23:2021
175 0:19 1:0.3 2:40 7:1 12:1185732 15:1 20:33 21:10 22:5 23:2021
250 0:48 1:0.4 2:64.99999999999999 5:1 12:1185732 15:1 18:1 20:40 21:12 22:11 23:2021
144 0:18 1:0.42 2:42 7:1 12:1185732 15:1 18:1 20:21 21:16 22:8 23:2021
425 0:18 1:0.3 2:40.00000000000001 7:1 12:1185732 15:1 20:21 21:17 22:10 23:2021
60 0:19 1:0.4 2:27 7:1 12:1185732 15:1 18:1 20:33 21:9 22:6 23:2021
450 0:18 1:0.3 2:30 7:1 12:1185732 15:1 20:21 21:16 22:4 23:2021
725 0:18 1:0.55 2:65 5:1 12:1185732 15:1 20:21 21:15 22:7 23:2021
120 0:18 1:0.5 2:45 12:1185732 15:1 18:1 20:21 21:16 22:4 23:2021
135 0:18 1:0.42 2:27 7:1 12:1185732 15:1 18:1 20:21 21:16 22:4 23:2021
275 0:19 1:0.3 2:35.00000000000001 3:1 12:1185732 15:1 20:33 21:10 22:9 23:2021
52 0:19 1:0.41 2:38 6:1 12:1185732 15:1 18:1 20:33 21:9 22:8 23:2021
94 0:18 1:0.52 2:43 12:1185732 15:1 18:1 20:21 21:15 22:3 23:2021
450 0:18 1:0.4 2:45.00000000000001 12:1185732 15:1 20:21 21:17 22:2 23:2021
525 0:18 1:0.55 2:55.00000000000001 5:1 12:1185732 15:1 20:21 21:17 22:10 23:2021
475 0:18 1:0.4 2:54.99999999999999 12:1185732 15:1 20:21 21:15 22:5 23:2021
650 0:18 1:0.4 2:50 3:1 12:1185732 15:1 20:21 21:15 22:12 23:2021
116 0:18 1:0.5 2:38 6:1 12:1185732 15:1 18:1 20:21 21:17 22:10 23:2021
70 0:48 1:0.55 2:55 5:1 12:1185732 15:1 18:1 20:40 21:12 22:10 23:2021
250 0:48 1:0.4 2:59.99999999999999 5:1 12:1185732 15:1 18:1 20:40 21:12 22:10 23:2021
145 0:18 1:0.42 2:34 7:1 12:1185732 15:1 18:1 20:21 21:15 22:9 23:2021
31 0:19 1:0.48 2:46 12:1185732 15:1 18:1 20:33 21:10 22:5 23:2021
129 0:19 1:0.48 2:55 4:1 12:1185732 15:1 18:1 20:33 21:10 22:5 23:2021
700 0:5 1:0.35 2:30 3:1 12:1197831 15:1 19:1 20:25 21:11 22:3 23:2021
525 0:18 1:0.35 2:35 6:1 12:1185732 15:1 20:21 21:16 22:8 23:2021
135 0:18 1:0.53 2:42 12:1185732 15:1 18:1 20:21 21:16 22:8 23:2021
550 0:19 1:0.35 2:50 4:1 12:1185732 15:1 20:33 21:8 22:7 23:2021
800 0:18 1:0.5 2:45.00000000000001 4:1 12:1185732 15:1 20:21 21:15 22:9 23:2021
495 0:19 1:0.35 2:60 4:1 12:1185732 15:1 20:33 21:10 22:5 23:2021
51 0:19 1:0.49 2:42 12:1185732 15:1 18:1 20:33 21:9 22:2 23:2021
195 0:18 1:0.5 2:50 3:1 12:1185732 15:1 18:1 20:21 21:16 22:8 23:2021
49 0:48 1:0.49 2:43 12:1185732 15:1 18:1 20:40 21:9 22:1 23:2021
152 0:48 1:0.45 2:34 4:1 12:1185732 15:1 18:1 20:40 21:9 22:2 23:2021
375 0:18 1:0.35 2:29.99999999999999 6:1 12:1185732 15:1 20:21 21:17 22:2 23:2021
300 0:19 1:0.3 2:45.00000000000001 3:1 12:1185732 15:1 20:33 21:9 22:8 23:2021
275 0:19 1:0.4 2:25 5:1 12:1185732 15:1 18:1 20:33 21:9 22:2 23:2021
176 0:18 1:0.53 2:46 3:1 12:1185732 15:1 18:1 20:21 21:15 22:12 23:2021
195 0:48 1:0.3 2:45 7:1 12:1185732 15:1 18:1 20:40 21:12 22:11 23:2021
225 0:19 1:0.3 2:40 7:1 12:1185732 15:1 20:33 21:9 22:8 23:2021
196 0:18 1:0.63 2:49 4:1 12:1185732 15:1 18:1 20:21 21:16 22:11 23:2021
575 0:18 1:0.55 2:60 5:1 12:1185732 15:1 20:21 21:15 22:5 23:2021
95 0:19 1:0.53 2:54 5:1 12:1185732 15:1 18:1 20:33 21:9 22:8 23:2021
175 0:48 1:0.3 2:35 3:1 12:1185732 15:1 18:1 20:40 21:9 22:2 23:2021
69 0:19 1:0.51 2:23 5:1 12:1185732 15:1 18:1 20:33 21:9 22:2 23:2021
143 0:18 1:0.6900000000000001 2:33 5:1 12:1185732 15:1 18:1 20:21 21:15 22:3 23:2021
725 0:13 1:0.3 2:20 4:1 12:1197831 15:1 19:1 20:12 21:11 22:8 23:2021
250 0:48 1:0.3 2:45 3:1 12:1185732 15:1 18:1 20:40 21:12 22:11 23:2021
138 0:18 1:0.44 2:41 7:1 12:1185732 15:1 18:1 20:21 21:17 22:6 23:2021
200 0:48 1:0.3 2:50 6:1 12:1185732 15:1 18:1 20:40 21:11 22:12 23:2021
196 0:38 1:0.54 2:29 3:1 12:1197831 15:1 18:1 20:26 21:2 22:8 23:2021
175 0:19 1:0.3 2:30 7:1 12:1185732 15:1 20:33 21:10 22:9 23:2021
275 0:48 1:0.3 2:25.00000000000001 7:1 12:1185732 15:1 18:1 20:40 21:9 22:1 23:2021
575 0:18 1:0.4 2:50 3:1 12:1185732 15:1 20:21 21:17 22:6 23:2021
150 0:19 1:0.35 2:40 12:1185732 15:1 20:33 21:10 22:9 23:2021
225 0:48 1:0.3 2:25.00000000000001 7:1 12:1185732 15:1 18:1 20:40 21:9 22:2 23:2021
113 0:19 1:0.49 2:28 4:1 12:1185732 15:1 18:1 20:33 21:9 22:4 23:2021
175 0:48 1:0.3 2:45 6:1 12:1185732 15:1 18:1 20:40 21:12 22:11 23:2021
111 0:18 1:0.53 2:38 3:1 12:1185732 15:1 18:1 20:21 21:16 22:4 23:2021
875 0:18 1:0.5 2:60 4:1 12:1185732 15:1 20:21 21:16 22:8 23:2021
34 0:19 1:0.47 2:45 12:1185732 15:1 18:1 20:33 21:9 22:10 23:2021
125 0:19 1:0.35 2:49.99999999999999 12:1185732 15:1 20:33 21:10 22:5 23:2021
210 0:5 1:0.5 2:18 4:1 12:1197831 15:1 18:1 20:25 21:10 22:3 23:2021
128 0:18 1:0.5 2:41 12:1185732 15:1 18:1 20:21 21:15 22:9 23:2021
50 0:48 1:0.45 2:56 12:1185732 15:1 18:1 20:40 21:11 22:12 23:2021
200 0:19 1:0.3 2:40 6:1 12:1185732 15:1 20:33 21:9 22:8 23:2021
44 0:48 1:0.44 2:43 6:1 12:1185732 15:1 18:1 20:40 21:12 22:11 23:2021
450 0:18 1:0.35 2:45 6:1 12:1185732 15:1 20:21 21:15 22:5 23:2021
44 0:19 1:0.46 2:46 12:1185732 15:1 18:1 20:33 21:9 22:8 23:2021
33 0:48 1:0.45 2:28 6:1 12:1185732 15:1 18:1 20:40 21:9 22:1 23:2021
400 0:18 1:0.4 2:50.00000000000001 12:1185732 15:1 20:21 21:17 22:10 23:2021
196 0:13 1:0.4 2:28 3:1 12:1197831 15:1 18:1 20:12 21:12 22:8 23:2021
65 0:19 1:0.43 2:32 3:1 12:1185732 15:1 18:1 20:33 21:9 22:6 23:2021
525 0:18 1:0.35 2:50 6:1 12:1185732 15:1 20:21 21:15 22:7 23:2021
150 0:19 1:0.3 2:20 7:1 12:1185732 15:1 18:1 20:33 21:9 22:4 23:2021
500 0:5 1:0.45 2:35 6:1 12:1197831 15:1 19:1 20:25 21:13 22:3 23:2021
475 0:18 1:0.3 2:45 7:1 12:1185732 15:1 20:21 21:15 22:5 23:2021
200 0:19 1:0.3 2:45 3:1 12:1185732 15:1 20:33 21:10 22:5 23:2021
167 0:18 1:0.54 2:46 3:1 12:1185732 15:1 18:1 20:21 21:17 22:6 23:2021
500 0:19 1:0.35 2:40 4:1 12:1185732 15:1 20:33 21:9 22:6 23:2021
189 0:13 1:0.4 2:20 4:1 12:1197831 15:1 18:1 20:12 21:11 22:8 23:2021
63 0:48 1:0.41 2:41 3:1 12:1185732 15:1 18:1 20:40 21:12 22:11 23:2021
175 0:19 1:0.3 2:40 6:1 12:1185732 15:1 20:33 21:8 22:7 23:2021
475 0:19 1:0.35 2:40 4:1 12:1185732 15:1 20:33 21:10 22:9 23:2021
200 0:19 1:0.35 2:50 12:1185732 15:1 20:33 21:8 22:7 23:2021
45 0:48 1:0.46 2:59 12:1185732 15:1 18:1 20:40 21:12 22:11 23:2021
22 0:19 1:0.43 2:24 6:1 12:1185732 15:1 18:1 20:33 21:9 22:4 23:2021
125 0:19 1:0.3 2:40 6:1 12:1185732 15:1 20:33 21:9 22:10 23:2021
167 0:18 1:0.51 2:37 3:1 12:1185732 15:1 18:1 20:21 21:17 22:10 23:2021
181 0:18 1:0.6 2:32 4:1 12:1185732 15:1 18:1 20:21 21:16 22:4 23:2021
53 0:19 1:0.43 2:38 6:1 12:1185732 15:1 18:1 20:33 21:8 22:7 23:2021
152 0:18 1:0.5499999999999999 2:57 12:1185732 15:1 18:1 20:21 21:17 22:6 23:2021
57 0:48 1:0.44 2:43 7:1 12:1185732 15:1 18:1 20:40 21:12 22:11 23:2021
770 0:18 1:0.5 2:35 4:1 12:1185732 15:1 20:21 21:15 22:3 23:2021
550 0:18 1:0.3 2:45 7:1 12:1185732 15:1 20:21 21:17 22:6 23:2021
675 0:18 1:0.55 2:50.00000000000001 5:1 12:1185732 15:1 20:21 21:16 22:8 23:2021
232 0:18 1:0.63 2:42 4:1 12:1185732 15:1 18:1 20:21 21:15 22:9 23:2021
255 0:18 1:0.61 2:55 4:1 12:1185732 15:1 18:1 20:21 21:15 22:12 23:2021
100 0:19 1:0.35 2:60 12:1185732 15:1 20:33 21:9 22:4 23:2021
275 0:48 1:0.4 2:35 5:1 12:1185732 15:1 18:1 20:40 21:9 22:1 23:2021
134 0:19 1:0.47 2:29 4:1 12:1185732 15:1 18:1 20:33 21:8 22:3 23:2021
650 0:18 1:0.4 2:55.00000000000001 3:1 12:1185732 15:1 20:21 21:15 22:7 23:2021
33 0:19 1:0.4 2:38 6:1 12:1185732 15:1 18:1 20:33 21:9 22:10 23:2021
300 0:48 1:0.3 2:50 3:1 12:1185732 15:1 18:1 20:40 21:11 22:12 23:2021
63 0:19 1:0.41 2:37 7:1 12:1185732 15:1 18:1 20:33 21:9 22:8 23:2021
475 0:48 1:0.35 2:35 4:1 12:1185732 15:1 18:1 20:40 21:9 22:1 23:2021
130 0:5 1:0.45 2:27 7:1 12:1197831 15:1 18:1 20:25 21:12 22:3 23:2021
525 0:13 1:0.4 2:35 6:1 12:1197831 15:1 19:1 20:12 21:14 22:8 23:2021
300 0:48 1:0.4 2:64.99999999999999 5:1 12:1185732 15:1 18:1 20:40 21:11 22:12 23:2021
142 0:18 1:0.45 2:34 6:1 12:1185732 15:1 18:1 20:21 21:16 22:8 23:2021
51 0:19 1:0.42 2:29 6:1 12:1185732 15:1 18:1 20:33 21:9 22:6 23:2021
175 0:19 1:0.35 2:40 12:1185732 15:1 20:33 21:9 22:6 23:2021
225 0:19 1:0.3 2:20 7:1 12:1185732 15:1 18:1 20:33 21:8 22:3 23:2021
525 0:18 1:0.35 2:45 6:1 12:1185732 15:1 20:21 21:17 22:6 23:2021
84 0:19 1:0.43 2:44 3:1 12:1185732 15:1 18:1 20:33 21:8 22:7 23:2021
175 0:19 1:0.3 2:30 6:1 12:1185732 15:1 20:33 21:9 22:6 23:2021
500 0:48 1:0.35 2:60 4:1 12:1185732 15:1 18:1 20:40 21:11 22:12 23:2021
73 0:48 1:0.42 2:45 7:1 12:1185732 15:1 18:1 20:40 21:11 22:12 23:2021
350 0:19 1:0.4 2:55.00000000000001 5:1 12:1185732 15:1 20:33 21:9 22:8 23:2021
525 0:18 1:0.4 2:60 12:1185732 15:1 20:21 21:17 22:6 23:2021
109 0:18 1:0.46 2:32 6:1 12:1185732 15:1 18:1 20:21 21:16 22:4 23:2021
100 0:19 1:0.3 2:40 6:1 12:1185732 15:1 20:33 21:10 22:5 23:2021
72 0:48 1:0.51 2:33 5:1 12:1185732 15:1 18:1 20:40 21:9 22:1 23:2021
68 0:19 1:0.53 2:49 5:1 12:1185732 15:1 18:1 20:33 21:9 22:4 23:2021
173 0:18 1:0.65 2:48 5:1 12:1185732 15:1 18:1 20:21 21:15 22:9 23:2021
42 0:19 1:0.49 2:36 12:1185732 15:1 18:1 20:33 21:10 22:9 23:2021
