225 0:31 1:0.45 2:52 10:1 12:1185732 13:1 18:1 20:8 21:21 22:9 23:2020
115 0:29 1:0.48 2:38 10:1 12:1185732 13:1 18:1 20:16 21:20 22:1 23:2021
282 0:10 1:0.55 2:48 4:1 10:1 12:1185732 13:1 18:1 20:39 21:5 22:5 23:2021
725 0:3 1:0.35 2:40 3:1 10:1 12:1185732 13:1 18:1 20:9 21:7 22:2 23:2021
750 0:31 1:0.35 2:55.00000000000001 10:1 12:1185732 13:1 20:8 21:16 22:8 23:2020
225 0:29 1:0.35 2:60 10:1 12:1185732 13:1 18:1 20:16 21:21 22:12 23:2021
725 0:3 1:0.35 2:50 10:1 12:1185732 13:1 18:1 20:9 21:9 22:1 23:2021
162 0:44 1:0.55 2:85 10:1 12:1128299 13:1 18:1 20:45 21:23 22:7 23:2021
650 0:44 1:0.35 2:90 7:1 10:1 12:1128299 13:1 20:45 21:23 22:7 23:2021
400 0:3 1:0.35 2:65 10:1 12:1128299 13:1 18:1 20:9 21:12 22:12 23:2021
176 0:10 1:0.4 2:41 6:1 10:1 12:1185732 13:1 18:1 20:39 21:7 22:10 23:2021
525 0:44 1:0.35 2:55.00000000000001 3:1 10:1 12:1128299 13:1 20:45 21:24 22:10 23:2021
125 0:44 1:0.4 2:50.00000000000001 10:1 12:1128299 13:1 20:45 21:24 22:4 23:2021
775 0:31 1:0.3 2:45 6:1 10:1 12:1185732 13:1 20:8 21:20 22:9 23:2020
217 0:31 1:0.35 2:32 7:1 10:1 12:1185732 13:1 18:1 20:8 21:20 22:8 23:2020
200 0:44 1:0.35 2:50.00000000000001 6:1 10:1 12:1128299 13:1 20:45 21:25 22:9 23:2021
375 0:29 1:0.4 2:25 6:1 10:1 12:1185732 13:1 18:1 20:16 21:20 22:1 23:2021
143 0:44 1:0.47 2:38 4:1 10:1 12:1128299 13:1 18:1 20:45 21:23 22:3 23:2021
106 0:29 1:0.48 2:27 3:1 10:1 12:1185732 13:1 18:1 20:16 21:18 22:2 23:2021
250 0:44 1:0.35 2:50.00000000000001 7:1 10:1 12:1128299 13:1 20:45 21:25 22:9 23:2021
243 0:10 1:0.49 2:54 3:1 10:1 12:1185732 13:1 18:1 20:39 21:6 22:8 23:2021
239 0:3 1:0.6 2:37 5:1 10:1 12:1185732 13:1 18:1 20:9 21:9 22:1 23:2021
188 0:10 1:0.45 2:45 3:1 10:1 12:1185732 13:1 18:1 20:39 21:5 22:5 23:2021
244 0:10 1:0.65 2:66 5:1 10:1 12:1185732 13:1 18:1 20:39 21:5 22:7 23:2021
550 0:44 1:0.35 2:85 6:1 10:1 12:1128299 13:1 20:45 21:23 22:7 23:2021
101 0:29 1:0.53 2:23 6:1 10:1 12:1185732 13:1 18:1 20:16 21:20 22:1 23:2021
1075 0:3 1:0.45 2:40 4:1 10:1 12:1185732 13:1 18:1 20:9 21:7 22:2 23:2021
132 0:44 1:0.45 2:51 10:1 12:1128299 13:1 19:1 20:45 21:24 22:8 23:2021
725 0:31 1:0.35 2:45 3:1 10:1 12:1185732 13:1 20:8 21:24 22:4 23:2020
325 0:44 1:0.35 2:45.00000000000001 6:1 10:1 12:1128299 13:1 20:45 21:24 22:10 23:2021
68 0:44 1:0.42 2:32 6:1 10:1 12:1128299 13:1 19:1 20:45 21:24 22:4 23:2021
221 0:31 1:0.65 2:41 5:1 10:1 12:1185732 13:1 18:1 20:8 21:17 22:8 23:2020
80 0:29 1:0.54 2:66 5:1 10:1 12:1185732 13:1 18:1 20:16 21:22 22:11 23:2021
250 0:31 1:0.3 2:35 3:1 10:1 12:1185732 13:1 20:8 21:18 22:10 23:2020
158 0:29 1:0.55 2:18 7:1 10:1 12:1185732 13:1 18:1 20:16 21:20 22:1 23:2021
128 0:3 1:0.5 2:51 6:1 10:1 12:1128299 13:1 18:1 20:9 21:12 22:12 23:2021
525 0:44 1:0.3 2:60 5:1 10:1 12:1128299 13:1 20:45 21:25 22:5 23:2021
825 0:3 1:0.25 2:30 7:1 10:1 12:1185732 13:1 18:1 20:9 21:9 22:1 23:2021
78 0:44 1:0.42 2:49 5:1 10:1 12:1128299 13:1 18:1 20:45 21:23 22:3 23:2021
102 0:44 1:0.36 2:35 5:1 10:1 12:1128299 13:1 19:1 20:45 21:23 22:3 23:2021
160 0:3 1:0.3 2:47 5:1 10:1 12:1128299 13:1 19:1 20:9 21:12 22:12 23:2021
202 0:31 1:0.49 2:60 10:1 12:1185732 13:1 18:1 20:8 21:24 22:5 23:2020
196 0:10 1:0.5 2:53 10:1 12:1185732 13:1 18:1 20:39 21:5 22:5 23:2021
225 0:44 1:0.45 2:74 3:1 10:1 12:1128299 13:1 18:1 20:45 21:23 22:12 23:2021
176 0:10 1:0.39 2:41 7:1 10:1 12:1185732 13:1 18:1 20:39 21:7 22:10 23:2021
725 0:10 1:0.25 2:40 7:1 10:1 12:1185732 13:1 18:1 20:39 21:5 22:9 23:2021
925 0:10 1:0.45 2:55.00000000000001 4:1 10:1 12:1185732 13:1 18:1 20:39 21:6 22:11 23:2021
98 0:29 1:0.53 2:64 5:1 10:1 12:1185732 13:1 18:1 20:16 21:21 22:12 23:2021
149 0:44 1:0.4 2:74 5:1 10:1 12:1128299 13:1 18:1 20:45 21:24 22:11 23:2021
224 0:44 1:0.38 2:60 3:1 10:1 12:1128299 13:1 19:1 20:45 21:23 22:7 23:2021
98 0:29 1:0.48 2:52 3:1 10:1 12:1185732 13:1 18:1 20:16 21:21 22:12 23:2021
255 0:44 1:0.5 2:79 4:1 10:1 12:1128299 13:1 18:1 20:45 21:23 22:7 23:2021
109 0:44 1:0.32 2:40 5:1 10:1 12:1128299 13:1 19:1 20:45 21:24 22:10 23:2021
80 0:44 1:0.34 2:55 5:1 10:1 12:1128299 13:1 19:1 20:45 21:24 22:8 23:2021
109 0:44 1:0.37 2:37 7:1 10:1 12:1128299 13:1 19:1 20:45 21:25 22:5 23:2021
450 0:44 1:0.35 2:55.00000000000001 3:1 10:1 12:1128299 13:1 20:45 21:25 22:9 23:2021
283 0:10 1:0.5700000000000001 2:33 4:1 10:1 12:1185732 13:1 18:1 20:39 21:6 22:4 23:2021
124 0:29 1:0.55 2:18 7:1 10:1 12:1185732 13:1 18:1 20:16 21:18 22:2 23:2021
184 0:44 1:0.41 2:61 6:1 10:1 12:1128299 13:1 19:1 20:45 21:24 22:6 23:2021
175 0:44 1:0.4 2:39 4:1 10:1 12:1128299 13:1 19:1 20:45 21:25 22:5 23:2021
182 0:10 1:0.38 2:24 7:1 10:1 12:1185732 13:1 18:1 20:39 21:6 22:4 23:2021
88 0:44 1:0.5 2:50 7:1 10:1 12:1128299 13:1 18:1 20:45 21:25 22:5 23:2021
49 0:44 1:0.54 2:44 10:1 12:1128299 13:1 18:1 20:45 21:25 22:5 23:2021
233 0:44 1:0.37 2:37 4:1 10:1 12:1128299 13:1 19:1 20:45 21:24 22:6 23:2021
114 0:44 1:0.37 2:41 7:1 10:1 12:1128299 13:1 19:1 20:45 21:24 22:4 23:2021
425 0:44 1:0.4 2:70 10:1 12:1128299 13:1 20:45 21:24 22:8 23:2021
350 0:44 1:0.35 2:40 4:1 10:1 12:1128299 13:1 20:45 21:24 22:10 23:2021
83 0:44 1:0.36 2:33 5:1 10:1 12:1128299 13:1 19:1 20:45 21:25 22:9 23:2021
244 0:10 1:0.6 2:50 4:1 10:1 12:1185732 13:1 18:1 20:39 21:7 22:10 23:2021
91 0:44 1:0.48 2:52 7:1 10:1 12:1128299 13:1 18:1 20:45 21:23 22:3 23:2021
248 0:3 1:0.39 2:29 7:1 10:1 12:1185732 13:1 18:1 20:9 21:9 22:1 23:2021
350 0:44 1:0.35 2:55.00000000000001 7:1 10:1 12:1128299 13:1 20:45 21:25 22:5 23:2021
69 0:44 1:0.48 2:59 3:1 10:1 12:1128299 13:1 18:1 20:45 21:24 22:4 23:2021
750 0:31 1:0.35 2:55.00000000000001 10:1 12:1185732 13:1 20:8 21:10 22:8 23:2020
39 0:44 1:0.45 2:29 10:1 12:1128299 13:1 19:1 20:45 21:24 22:2 23:2021
250 0:44 1:0.3 2:44.99999999999999 5:1 10:1 12:1128299 13:1 20:45 21:25 22:9 23:2021
325 0:44 1:0.35 2:50 3:1 10:1 12:1128299 13:1 20:45 21:23 22:3 23:2021
281 0:3 1:0.53 2:30 5:1 10:1 12:1185732 13:1 19:1 20:9 21:9 22:1 23:2021
153 0:44 1:0.39 2:43 3:1 10:1 12:1128299 13:1 19:1 20:45 21:25 22:9 23:2021
300 0:44 1:0.4 2:55.00000000000001 10:1 12:1128299 13:1 20:45 21:24 22:10 23:2021
200 0:10 1:0.6 2:59 5:1 10:1 12:1185732 13:1 18:1 20:39 21:5 22:5 23:2021
290 0:10 1:0.6 2:67 4:1 10:1 12:1185732 13:1 18:1 20:39 21:5 22:12 23:2021
500 0:3 1:0.25 2:70 5:1 10:1 12:1128299 13:1 18:1 20:9 21:12 22:12 23:2021
825 0:10 1:0.25 2:55.00000000000001 7:1 10:1 12:1185732 13:1 18:1 20:39 21:5 22:7 23:2021
105 0:44 1:0.41 2:40 3:1 10:1 12:1128299 13:1 19:1 20:45 21:25 22:5 23:2021
131 0:31 1:0.4500000000000001 2:33 4:1 10:1 12:1185732 13:1 18:1 20:8 21:17 22:10 23:2020
349 0:3 1:0.47 2:26 4:1 10:1 12:1185732 13:1 19:1 20:9 21:9 22:1 23:2021
326 0:10 1:0.5700000000000001 2:62 4:1 10:1 12:1185732 13:1 18:1 20:39 21:6 22:8 23:2021
1045 0:10 1:0.45 2:50 4:1 10:1 12:1185732 13:1 18:1 20:39 21:5 22:5 23:2021
78 0:44 1:0.39 2:38 6:1 10:1 12:1128299 13:1 19:1 20:45 21:23 22:3 23:2021
81 0:44 1:0.43 2:38 5:1 10:1 12:1128299 13:1 18:1 20:45 21:24 22:2 23:2021
225 0:44 1:0.41 2:54 3:1 10:1 12:1128299 13:1 19:1 20:45 21:23 22:12 23:2021
54 0:44 1:0.49 2:45 6:1 10:1 12:1128299 13:1 18:1 20:45 21:25 22:9 23:2021
143 0:44 1:0.39 2:33 7:1 10:1 12:1128299 13:1 19:1 20:45 21:24 22:11 23:2021
240 0:31 1:0.38 2:32 7:1 10:1 12:1185732 13:1 18:1 20:8 21:14 22:8 23:2020
181 0:10 1:0.48 2:41 10:1 12:1185732 13:1 18:1 20:39 21:5 22:3 23:2021
233 0:31 1:0.4 2:44 6:1 10:1 12:1185732 13:1 18:1 20:8 21:20 22:9 23:2020
1025 0:3 1:0.45 2:40 4:1 10:1 12:1185732 13:1 18:1 20:9 21:9 22:1 23:2021
287 0:10 1:0.5800000000000001 2:51 4:1 10:1 12:1185732 13:1 18:1 20:39 21:5 22:9 23:2021
475 0:44 1:0.35 2:45.00000000000001 7:1 10:1 12:1128299 13:1 20:45 21:24 22:11 23:2021
113 0:44 1:0.46 2:52 3:1 10:1 12:1128299 13:1 18:1 20:45 21:25 22:9 23:2021
247 0:31 1:0.62 2:41 5:1 10:1 12:1185732 13:1 18:1 20:8 21:11 22:8 23:2020
725 0:10 1:0.5 2:35 5:1 10:1 12:1185732 13:1 18:1 20:39 21:5 22:3 23:2021
113 0:44 1:0.5 2:46 4:1 10:1 12:1128299 13:1 18:1 20:45 21:25 22:9 23:2021
74 0:29 1:0.55 2:51 7:1 10:1 12:1185732 13:1 18:1 20:16 21:21 22:12 23:2021
138 0:44 1:0.48 2:43 7:1 10:1 12:1128299 13:1 18:1 20:45 21:24 22:11 23:2021
675 0:10 1:0.35 2:35 3:1 10:1 12:1185732 13:1 18:1 20:39 21:6 22:4 23:2021
206 0:10 1:0.63 2:74 5:1 10:1 12:1185732 13:1 18:1 20:39 21:6 22:11 23:2021
925 0:10 1:0.5 2:70 5:1 10:1 12:1185732 13:1 18:1 20:39 21:7 22:6 23:2021
278 0:10 1:0.5700000000000001 2:50 4:1 10:1 12:1185732 13:1 18:1 20:39 21:6 22:11 23:2021
231 0:44 1:0.37 2:82 5:1 10:1 12:1128299 13:1 19:1 20:45 21:24 22:6 23:2021
189 0:29 1:0.54 2:29 4:1 10:1 12:1185732 13:1 18:1 20:16 21:20 22:1 23:2021
119 0:44 1:0.42 2:39 7:1 10:1 12:1128299 13:1 19:1 20:45 21:24 22:10 23:2021
775 0:31 1:0.35 2:65 10:1 12:1185732 13:1 20:8 21:24 22:5 23:2020
176 0:44 1:0.33 2:60 5:1 10:1 12:1128299 13:1 19:1 20:45 21:24 22:11 23:2021
273 0:10 1:0.5600000000000001 2:51 4:1 10:1 12:1185732 13:1 18:1 20:39 21:7 22:6 23:2021
101 0:44 1:0.37 2:31 6:1 10:1 12:1128299 13:1 19:1 20:45 21:24 22:10 23:2021
56 0:44 1:0.47 2:42 6:1 10:1 12:1128299 13:1 18:1 20:45 21:24 22:4 23:2021
219 0:31 1:0.63 2:64 5:1 10:1 12:1185732 13:1 18:1 20:8 21:24 22:5 23:2020
575 0:10 1:0.3 2:29.99999999999999 6:1 10:1 12:1185732 13:1 18:1 20:39 21:5 22:3 23:2021
175 0:44 1:0.4 2:44.99999999999999 10:1 12:1128299 13:1 20:45 21:25 22:5 23:2021
85 0:44 1:0.38 2:33 6:1 10:1 12:1128299 13:1 19:1 20:45 21:25 22:5 23:2021
350 0:44 1:0.35 2:54.99999999999999 7:1 10:1 12:1128299 13:1 20:45 21:23 22:3 23:2021
247 0:3 1:0.39 2:35 10:1 12:1185732 13:1 19:1 20:9 21:9 22:1 23:2021
203 0:44 1:0.5 2:81 3:1 10:1 12:1128299 13:1 18:1 20:45 21:23 22:7 23:2021
625 0:10 1:0.35 2:45.00000000000001 10:1 12:1185732 13:1 18:1 20:39 21:5 22:3 23:2021
775 0:10 1:0.3 2:45 6:1 10:1 12:1185732 13:1 18:1 20:39 21:6 22:8 23:2021
278 0:10 1:0.61 2:58 5:1 10:1 12:1185732 13:1 18:1 20:39 21:6 22:8 23:2021
825 0:3 1:0.5 2:40 5:1 10:1 12:1185732 13:1 18:1 20:9 21:9 22:1 23:2021
119 0:44 1:0.4 2:28 4:1 10:1 12:1128299 13:1 19:1 20:45 21:24 22:10 23:2021
169 0:44 1:0.49 2:47 3:1 10:1 12:1128299 13:1 18:1 20:45 21:24 22:11 23:2021
675 0:3 1:0.3 2:35 6:1 10:1 12:1185732 13:1 18:1 20:9 21:9 22:1 23:2021
250 0:44 1:0.3 2:75 5:1 10:1 12:1128299 13:1 20:45 21:24 22:8 23:2021
750 0:10 1:0.35 2:55.00000000000001 10:1 12:1185732 13:1 18:1 20:39 21:6 22:8 23:2021
113 0:44 1:0.48 2:52 6:1 10:1 12:1128299 13:1 18:1 20:45 21:24 22:11 23:2021
158 0:29 1:0.55 2:59 4:1 10:1 12:1185732 13:1 18:1 20:16 21:21 22:12 23:2021
750 0:10 1:0.3 2:50 6:1 10:1 12:1185732 13:1 18:1 20:39 21:7 22:6 23:2021
300 0:44 1:0.3 2:65.00000000000001 5:1 10:1 12:1128299 13:1 20:45 21:24 22:4 23:2021
775 0:10 1:0.3 2:55.00000000000001 6:1 10:1 12:1185732 13:1 18:1 20:39 21:5 22:7 23:2021
85 0:44 1:0.49 2:57 7:1 10:1 12:1128299 13:1 18:1 20:45 21:24 22:4 23:2021
250 0:31 1:0.3 2:25 7:1 10:1 12:1185732 13:1 20:8 21:19 22:10 23:2020
500 0:44 1:0.35 2:50 4:1 10:1 12:1128299 13:1 20:45 21:25 22:5 23:2021
775 0:44 1:0.35 2:54.99999999999999 4:1 10:1 12:1128299 13:1 20:45 21:24 22:6 23:2021
202 0:10 1:0.42 2:52 6:1 10:1 12:1185732 13:1 18:1 20:39 21:5 22:7 23:2021
188 0:10 1:0.45 2:44 3:1 10:1 12:1185732 13:1 18:1 20:39 21:6 22:11 23:2021
525 0:29 1:0.5 2:30 5:1 10:1 12:1185732 13:1 18:1 20:16 21:20 22:1 23:2021
225 0:10 1:0.65 2:56 5:1 10:1 12:1185732 13:1 18:1 20:39 21:7 22:10 23:2021
775 0:3 1:0.25 2:30 7:1 10:1 12:1185732 13:1 18:1 20:9 21:7 22:2 23:2021
138 0:3 1:0.5 2:53 7:1 10:1 12:1128299 13:1 18:1 20:9 21:12 22:12 23:2021
725 0:29 1:0.4 2:30 4:1 10:1 12:1185732 13:1 18:1 20:16 21:20 22:1 23:2021
250 0:10 1:0.64 2:65 5:1 10:1 12:1185732 13:1 18:1 20:39 21:7 22:6 23:2021
225 0:31 1:0.48 2:42 3:1 10:1 12:1185732 13:1 18:1 20:8 21:19 22:8 23:2020
475 0:44 1:0.35 2:40 4:1 10:1 12:1128299 13:1 20:45 21:23 22:3 23:2021
187 0:44 1:0.42 2:65 6:1 10:1 12:1128299 13:1 19:1 20:45 21:23 22:7 23:2021
900 0:10 1:0.35 2:60.00000000000001 3:1 10:1 12:1185732 13:1 18:1 20:39 21:6 22:8 23:2021
650 0:44 1:0.35 2:50.00000000000001 3:1 10:1 12:1128299 13:1 20:45 21:24 22:11 23:2021
800 0:10 1:0.5 2:55.00000000000001 5:1 10:1 12:1185732 13:1 18:1 20:39 21:5 22:9 23:2021
350 0:44 1:0.3 2:60.00000000000001 5:1 10:1 12:1128299 13:1 20:45 21:24 22:10 23:2021
600 0:44 1:0.4 2:90 10:1 12:1128299 13:1 20:45 21:23 22:7 23:2021
231 0:10 1:0.4 2:50 7:1 10:1 12:1185732 13:1 18:1 20:39 21:6 22:8 23:2021
54 0:44 1:0.43 2:34 10:1 12:1128299 13:1 19:1 20:45 21:25 22:5 23:2021
875 0:10 1:0.35 2:60.00000000000001 3:1 10:1 12:1185732 13:1 18:1 20:39 21:5 22:12 23:2021
1025 0:10 1:0.45 2:55.00000000000001 4:1 10:1 12:1185732 13:1 18:1 20:39 21:5 22:9 23:2021
525 0:44 1:0.35 2:80 6:1 10:1 12:1128299 13:1 20:45 21:24 22:6 23:2021
675 0:10 1:0.25 2:45.00000000000001 7:1 10:1 12:1185732 13:1 18:1 20:39 21:7 22:10 23:2021
325 0:44 1:0.35 2:60.00000000000001 7:1 10:1 12:1128299 13:1 20:45 21:24 22:4 23:2021
550 0:44 1:0.3 2:80.00000000000001 5:1 10:1 12:1128299 13:1 20:45 21:24 22:11 23:2021
30 0:44 1:0.52 2:51 10:1 12:1128299 13:1 18:1 20:45 21:23 22:3 23:2021
775 0:10 1:0.25 2:50 7:1 10:1 12:1185732 13:1 18:1 20:39 21:7 22:6 23:2021
216 0:10 1:0.65 2:34 5:1 10:1 12:1185732 13:1 18:1 20:39 21:7 22:2 23:2021
850 0:31 1:0.5 2:45 5:1 10:1 12:1185732 13:1 20:8 21:11 22:8 23:2020
1075 0:10 1:0.45 2:70 4:1 10:1 12:1185732 13:1 18:1 20:39 21:5 22:12 23:2021
218 0:31 1:0.48 2:53 10:1 12:1185732 13:1 18:1 20:8 21:16 22:8 23:2020
142 0:44 1:0.49 2:51 3:1 10:1 12:1128299 13:1 18:1 20:45 21:24 22:10 23:2021
100 0:31 1:0.35 2:30 6:1 10:1 12:1185732 13:1 20:8 21:20 22:10 23:2020
775 0:31 1:0.25 2:35 7:1 10:1 12:1185732 13:1 20:8 21:20 22:8 23:2020
695 0:10 1:0.25 2:45.00000000000001 7:1 10:1 12:1185732 13:1 18:1 20:39 21:6 22:11 23:2021
1125 0:10 1:0.45 2:65 4:1 10:1 12:1185732 13:1 18:1 20:39 21:6 22:8 23:2021
750 0:31 1:0.35 2:55.00000000000001 10:1 12:1185732 13:1 20:8 21:21 22:9 23:2020
255 0:31 1:0.45 2:46 3:1 10:1 12:1185732 13:1 18:1 20:8 21:24 22:9 23:2020
107 0:44 1:0.36 2:30 5:1 10:1 12:1128299 13:1 19:1 20:45 21:24 22:2 23:2021
112 0:44 1:0.41 2:43 7:1 10:1 12:1128299 13:1 19:1 20:45 21:23 22:3 23:2021
256 0:3 1:0.4 2:30 3:1 10:1 12:1185732 13:1 19:1 20:9 21:9 22:1 23:2021
98 0:44 1:0.41 2:35 3:1 10:1 12:1128299 13:1 19:1 20:45 21:23 22:3 23:2021
136 0:44 1:0.44 2:56 10:1 12:1128299 13:1 19:1 20:45 21:24 22:11 23:2021
225 0:29 1:0.52 2:28 4:1 10:1 12:1185732 13:1 18:1 20:16 21:18 22:2 23:2021
800 0:10 1:0.35 2:50 3:1 10:1 12:1185732 13:1 18:1 20:39 21:7 22:6 23:2021
350 0:44 1:0.35 2:55.00000000000001 3:1 10:1 12:1128299 13:1 20:45 21:25 22:5 23:2021
425 0:29 1:0.35 2:30 3:1 10:1 12:1185732 13:1 18:1 20:16 21:18 22:2 23:2021
125 0:44 1:0.46 2:46 4:1 10:1 12:1128299 13:1 18:1 20:45 21:25 22:5 23:2021
90 0:44 1:0.36 2:47 5:1 10:1 12:1128299 13:1 19:1 20:45 21:24 22:4 23:2021
104 0:44 1:0.51 2:81 10:1 12:1128299 13:1 18:1 20:45 21:24 22:6 23:2021
425 0:44 1:0.35 2:70 6:1 10:1 12:1128299 13:1 20:45 21:24 22:8 23:2021
218 0:3 1:0.46 2:39 3:1 10:1 12:1185732 13:1 18:1 20:9 21:7 22:2 23:2021
825 0:10 1:0.5 2:75 5:1 10:1 12:1185732 13:1 18:1 20:39 21:6 22:11 23:2021
33 0:44 1:0.42 2:43 10:1 12:1128299 13:1 19:1 20:45 21:23 22:3 23:2021
700 0:10 1:0.35 2:35 3:1 10:1 12:1185732 13:1 18:1 20:39 21:5 22:3 23:2021
800 0:10 1:0.5 2:60 5:1 10:1 12:1185732 13:1 18:1 20:39 21:5 22:5 23:2021
144 0:10 1:0.42 2:27 6:1 10:1 12:1185732 13:1 18:1 20:39 21:5 22:3 23:2021
195 0:10 1:0.45 2:62 10:1 12:1185732 13:1 18:1 20:39 21:7 22:6 23:2021
312 0:3 1:0.5900000000000001 2:38 4:1 10:1 12:1185732 13:1 18:1 20:9 21:7 22:2 23:2021
74 0:44 1:0.47 2:39 10:1 12:1128299 13:1 19:1 20:45 21:25 22:9 23:2021
175 0:10 1:0.46 2:48 10:1 12:1185732 13:1 18:1 20:39 21:5 22:9 23:2021
180 0:10 1:0.43 2:27 6:1 10:1 12:1185732 13:1 18:1 20:39 21:6 22:4 23:2021
850 0:44 1:0.35 2:85 4:1 10:1 12:1128299 13:1 20:45 21:23 22:7 23:2021
248 0:3 1:0.3 2:21 7:1 10:1 12:1185732 13:1 19:1 20:9 21:7 22:2 23:2021
525 0:29 1:0.4 2:20.00000000000001 7:1 10:1 12:1185732 13:1 18:1 20:16 21:20 22:1 23:2021
975 0:10 1:0.5 2:70 5:1 10:1 12:1185732 13:1 18:1 20:39 21:5 22:7 23:2021
181 0:10 1:0.38 2:24 7:1 10:1 12:1185732 13:1 18:1 20:39 21:5 22:3 23:2021
195 0:44 1:0.48 2:73 7:1 10:1 12:1128299 13:1 18:1 20:45 21:24 22:6 23:2021
202 0:10 1:0.35 2:43 7:1 10:1 12:1185732 13:1 18:1 20:39 21:6 22:11 23:2021
700 0:10 1:0.35 2:50 10:1 12:1185732 13:1 18:1 20:39 21:7 22:2 23:2021
85 0:44 1:0.41 2:44 3:1 10:1 12:1128299 13:1 19:1 20:45 21:24 22:4 23:2021
675 0:10 1:0.3 2:45 6:1 10:1 12:1185732 13:1 18:1 20:39 21:5 22:5 23:2021
158 0:29 1:0.62 2:29 5:1 10:1 12:1185732 13:1 18:1 20:16 21:20 22:1 23:2021
175 0:29 1:0.35 2:65 10:1 12:1185732 13:1 18:1 20:16 21:22 22:11 23:2021
376 0:3 1:0.48 2:31 4:1 10:1 12:1185732 13:1 19:1 20:9 21:7 22:2 23:2021
800 0:10 1:0.35 2:45.00000000000001 3:1 10:1 12:1185732 13:1 18:1 20:39 21:7 22:10 23:2021
206 0:3 1:0.45 2:37 3:1 10:1 12:1185732 13:1 18:1 20:9 21:9 22:1 23:2021
775 0:31 1:0.5 2:45 5:1 10:1 12:1185732 13:1 20:8 21:23 22:8 23:2020
775 0:10 1:0.5 2:40 5:1 10:1 12:1185732 13:1 18:1 20:39 21:6 22:4 23:2021
209 0:10 1:0.63 2:39 5:1 10:1 12:1185732 13:1 18:1 20:39 21:6 22:4 23:2021
58 0:44 1:0.5 2:38 6:1 10:1 12:1128299 13:1 18:1 20:45 21:24 22:2 23:2021
65 0:44 1:0.46 2:48 6:1 10:1 12:1128299 13:1 18:1 20:45 21:23 22:3 23:2021
35 0:44 1:0.51 2:49 10:1 12:1128299 13:1 18:1 20:45 21:24 22:4 23:2021
225 0:10 1:0.46 2:51 10:1 12:1185732 13:1 18:1 20:39 21:6 22:8 23:2021
1020 0:10 1:0.45 2:35 4:1 10:1 12:1185732 13:1 18:1 20:39 21:5 22:3 23:2021
475 0:3 1:0.4 2:55.00000000000001 6:1 10:1 12:1128299 13:1 18:1 20:9 21:12 22:12 23:2021
149 0:44 1:0.46 2:82 6:1 10:1 12:1128299 13:1 18:1 20:45 21:23 22:7 23:2021
87 0:44 1:0.54 2:53 10:1 12:1128299 13:1 18:1 20:45 21:24 22:10 23:2021
182 0:10 1:0.42 2:43 6:1 10:1 12:1185732 13:1 18:1 20:39 21:5 22:5 23:2021
1050 0:31 1:0.45 2:55.00000000000001 4:1 10:1 12:1185732 13:1 20:8 21:23 22:9 23:2020
650 0:44 1:0.35 2:80 7:1 10:1 12:1128299 13:1 20:45 21:24 22:6 23:2021
26 0:31 1:0.4500000000000001 2:29 6:1 10:1 12:1185732 13:1 18:1 20:8 21:20 22:10 23:2020
225 0:44 1:0.47 2:60 4:1 10:1 12:1128299 13:1 18:1 20:45 21:23 22:12 23:2021
600 0:10 1:0.3 2:29.99999999999999 6:1 10:1 12:1185732 13:1 18:1 20:39 21:6 22:4 23:2021
750 0:10 1:0.35 2:50 3:1 10:1 12:1185732 13:1 18:1 20:39 21:5 22:5 23:2021
1050 0:10 1:0.45 2:54.99999999999999 4:1 10:1 12:1185732 13:1 18:1 20:39 21:7 22:6 23:2021
98 0:44 1:0.45 2:51 3:1 10:1 12:1128299 13:1 18:1 20:45 21:25 22:5 23:2021
219 0:10 1:0.45 2:58 3:1 10:1 12:1185732 13:1 18:1 20:39 21:5 22:12 23:2021
750 0:31 1:0.35 2:45 3:1 10:1 12:1185732 13:1 20:8 21:19 22:8 23:2020
625 0:31 1:0.3 2:40 6:1 10:1 12:1185732 13:1 20:8 21:21 22:8 23:2020
186 0:44 1:0.33 2:82 5:1 10:1 12:1128299 13:1 19:1 20:45 21:23 22:7 23:2021
210 0:31 1:0.5 2:41 3:1 10:1 12:1185732 13:1 18:1 20:8 21:24 22:4 23:2020
152 0:44 1:0.43 2:56 5:1 10:1 12:1128299 13:1 18:1 20:45 21:25 22:5 23:2021
68 0:29 1:0.53 2:49 6:1 10:1 12:1185732 13:1 18:1 20:16 21:21 22:12 23:2021
135 0:3 1:0.35 2:64 5:1 10:1 12:1128299 13:1 18:1 20:9 21:12 22:12 23:2021
850 0:31 1:0.5 2:45 5:1 10:1 12:1185732 13:1 20:8 21:17 22:8 23:2020
240 0:44 1:0.42 2:53 3:1 10:1 12:1128299 13:1 19:1 20:45 21:24 22:8 23:2021
155 0:44 1:0.47 2:42 4:1 10:1 12:1128299 13:1 18:1 20:45 21:24 22:11 23:2021
700 0:10 1:0.35 2:54.99999999999999 10:1 12:1185732 13:1 18:1 20:39 21:5 22:5 23:2021
147 0:3 1:0.42 2:36 7:1 10:1 12:1128299 13:1 19:1 20:9 21:12 22:12 23:2021
189 0:10 1:0.47 2:49 10:1 12:1185732 13:1 18:1 20:39 21:7 22:2 23:2021
173 0:44 1:0.42 2:34 4:1 10:1 12:1128299 13:1 19:1 20:45 21:24 22:11 23:2021
1100 0:31 1:0.45 2:45 4:1 10:1 12:1185732 13:1 20:8 21:12 22:8 23:2020
275 0:44 1:0.35 2:50 6:1 10:1 12:1128299 13:1 20:45 21:25 22:5 23:2021
100 0:44 1:0.4 2:55.00000000000001 10:1 12:1128299 13:1 20:45 21:23 22:3 23:2021
180 0:44 1:0.4 2:96 5:1 10:1 12:1128299 13:1 18:1 20:45 21:23 22:7 23:2021
56 0:44 1:0.5 2:58 10:1 12:1128299 13:1 18:1 20:45 21:25 22:9 23:2021
149 0:44 1:0.42 2:35 4:1 10:1 12:1128299 13:1 19:1 20:45 21:25 22:9 23:2021
225 0:31 1:0.64 2:42 5:1 10:1 12:1185732 13:1 18:1 20:8 21:23 22:8 23:2020
800 0:44 1:0.35 2:90 4:1 10:1 12:1128299 13:1 20:45 21:24 22:8 23:2021
475 0:3 1:0.35 2:55.00000000000001 7:1 10:1 12:1128299 13:1 18:1 20:9 21:12 22:12 23:2021
64 0:44 1:0.41 2:28 6:1 10:1 12:1128299 13:1 19:1 20:45 21:24 22:2 23:2021
208 0:10 1:0.5 2:42 3:1 10:1 12:1185732 13:1 18:1 20:39 21:7 22:10 23:2021
400 0:44 1:0.4 2:90 10:1 12:1128299 13:1 20:45 21:24 22:6 23:2021
52 0:29 1:0.5 2:52 6:1 10:1 12:1185732 13:1 18:1 20:16 21:22 22:11 23:2021
75 0:44 1:0.42 2:73 5:1 10:1 12:1128299 13:1 18:1 20:45 21:24 22:8 23:2021
975 0:10 1:0.45 2:35 4:1 10:1 12:1185732 13:1 18:1 20:39 21:6 22:4 23:2021
725 0:10 1:0.25 2:25 7:1 10:1 12:1185732 13:1 18:1 20:39 21:5 22:3 23:2021
725 0:10 1:0.35 2:70 10:1 12:1185732 13:1 18:1 20:39 21:6 22:11 23:2021
125 0:44 1:0.4 2:45.00000000000001 10:1 12:1128299 13:1 20:45 21:24 22:2 23:2021
925 0:31 1:0.5 2:60.00000000000001 5:1 10:1 12:1185732 13:1 20:8 21:22 22:9 23:2020
38 0:44 1:0.55 2:42 10:1 12:1128299 13:1 18:1 20:45 21:24 22:2 23:2021
325 0:44 1:0.3 2:40 5:1 10:1 12:1128299 13:1 20:45 21:24 22:2 23:2021
700 0:44 1:0.3 2:105 5:1 10:1 12:1128299 13:1 20:45 21:24 22:6 23:2021
311 0:10 1:0.5900000000000001 2:63 4:1 10:1 12:1185732 13:1 18:1 20:39 21:5 22:7 23:2021
223 0:10 1:0.48 2:48 3:1 10:1 12:1185732 13:1 18:1 20:39 21:5 22:9 23:2021
725 0:10 1:0.25 2:45 7:1 10:1 12:1185732 13:1 18:1 20:39 21:5 22:5 23:2021
142 0:29 1:0.45 2:29 3:1 10:1 12:1185732 13:1 18:1 20:16 21:20 22:1 23:2021
247 0:3 1:0.38 2:27 3:1 10:1 12:1185732 13:1 19:1 20:9 21:7 22:2 23:2021
350 0:44 1:0.35 2:50.00000000000001 7:1 10:1 12:1128299 13:1 20:45 21:24 22:10 23:2021
124 0:44 1:0.48 2:52 4:1 10:1 12:1128299 13:1 18:1 20:45 21:24 22:4 23:2021
78 0:44 1:0.44 2:64 5:1 10:1 12:1128299 13:1 18:1 20:45 21:24 22:4 23:2021
173 0:44 1:0.38 2:39 3:1 10:1 12:1128299 13:1 19:1 20:45 21:24 22:10 23:2021
182 0:10 1:0.46 2:34 3:1 10:1 12:1185732 13:1 18:1 20:39 21:6 22:4 23:2021
182 0:44 1:0.4 2:96 5:1 10:1 12:1128299 13:1 18:1 20:45 21:24 22:6 23:2021
106 0:44 1:0.51 2:64 10:1 12:1128299 13:1 18:1 20:45 21:24 22:8 23:2021
225 0:10 1:0.42 2:53 6:1 10:1 12:1185732 13:1 18:1 20:39 21:6 22:11 23:2021
217 0:3 1:0.37 2:29 7:1 10:1 12:1185732 13:1 18:1 20:9 21:7 22:2 23:2021
450 0:31 1:0.35 2:35 4:1 10:1 12:1185732 13:1 20:8 21:17 22:10 23:2020
272 0:44 1:0.37 2:60 4:1 10:1 12:1128299 13:1 19:1 20:45 21:23 22:7 23:2021
225 0:44 1:0.4 2:60.00000000000001 10:1 12:1128299 13:1 20:45 21:25 22:9 23:2021
209 0:10 1:0.36 2:47 7:1 10:1 12:1185732 13:1 18:1 20:39 21:7 22:6 23:2021
208 0:44 1:0.38 2:62 7:1 10:1 12:1128299 13:1 19:1 20:45 21:23 22:7 23:2021
