208 0:31 1:0.6 2:44 5:1 10:1 12:1185732 17:1 18:1 20:8 21:24 22:4 23:2020
252 0:31 1:0.45 2:55 3:1 10:1 12:1185732 17:1 18:1 20:8 21:18 22:9 23:2020
204 0:39 1:0.33 2:64 7:1 10:1 12:1128299 17:1 19:1 20:8 21:16 22:12 23:2021
194 0:31 1:0.5 2:54 3:1 10:1 12:1185732 17:1 18:1 20:8 21:24 22:4 23:2020
259 0:31 1:0.65 2:63 5:1 10:1 12:1185732 17:1 18:1 20:8 21:10 22:9 23:2020
234 0:39 1:0.55 2:44 4:1 10:1 12:1185732 17:1 18:1 20:8 21:10 22:2 23:2021
825 0:31 1:0.5 2:65 5:1 10:1 12:1185732 17:1 20:8 21:24 22:4 23:2020
1070 0:31 1:0.45 2:55.00000000000001 4:1 10:1 12:1185732 17:1 20:8 21:24 22:4 23:2020
800 0:31 1:0.25 2:50 7:1 10:1 12:1185732 17:1 20:8 21:7 22:9 23:2020
231 0:31 1:0.37 2:53 7:1 10:1 12:1185732 17:1 18:1 20:8 21:19 22:9 23:2020
800 0:31 1:0.5 2:45 5:1 10:1 12:1185732 17:1 20:8 21:24 22:4 23:2020
217 0:31 1:0.4 2:47 6:1 10:1 12:1185732 17:1 18:1 20:8 21:8 22:9 23:2020
272 0:39 1:0.51 2:30 4:1 10:1 12:1185732 17:1 19:1 20:8 21:12 22:1 23:2021
208 0:31 1:0.49 2:61 10:1 12:1185732 17:1 18:1 20:8 21:15 22:9 23:2020
625 0:39 1:0.45 2:95.00000000000001 5:1 10:1 12:1128299 17:1 20:8 21:16 22:12 23:2021
233 0:31 1:0.49 2:62 10:1 12:1185732 17:1 18:1 20:8 21:9 22:9 23:2020
180 0:39 1:0.41 2:78 6:1 10:1 12:1128299 17:1 18:1 20:8 21:16 22:12 23:2021
900 0:31 1:0.35 2:60.00000000000001 3:1 10:1 12:1185732 17:1 20:8 21:18 22:9 23:2020
204 0:39 1:0.32 2:23 7:1 10:1 12:1185732 17:1 19:1 20:8 21:10 22:2 23:2021
145 0:39 1:0.41 2:37 6:1 10:1 12:1185732 17:1 18:1 20:8 21:12 22:1 23:2021
975 0:31 1:0.5 2:70 5:1 10:1 12:1185732 17:1 20:8 21:16 22:9 23:2020
725 0:31 1:0.35 2:60 10:1 12:1185732 17:1 20:8 21:24 22:4 23:2020
221 0:39 1:0.4 2:36 3:1 10:1 12:1185732 17:1 19:1 20:8 21:12 22:1 23:2021
147 0:39 1:0.35 2:86 10:1 12:1128299 17:1 18:1 20:8 21:16 22:12 23:2021
248 0:31 1:0.64 2:64 5:1 10:1 12:1185732 17:1 18:1 20:8 21:24 22:4 23:2020
206 0:31 1:0.49 2:54 3:1 10:1 12:1185732 17:1 18:1 20:8 21:24 22:4 23:2020
208 0:31 1:0.35 2:49 7:1 10:1 12:1185732 17:1 18:1 20:8 21:7 22:9 23:2020
600 0:39 1:0.25 2:35 7:1 10:1 12:1185732 17:1 20:8 21:10 22:2 23:2021
221 0:39 1:0.55 2:35 5:1 10:1 12:1185732 17:1 19:1 20:8 21:12 22:1 23:2021
1125 0:31 1:0.45 2:65 4:1 10:1 12:1185732 17:1 20:8 21:17 22:9 23:2020
775 0:31 1:0.3 2:50 6:1 10:1 12:1185732 17:1 20:8 21:8 22:9 23:2020
750 0:31 1:0.25 2:50 7:1 10:1 12:1185732 17:1 20:8 21:24 22:4 23:2020
675 0:31 1:0.3 2:40 6:1 10:1 12:1185732 17:1 20:8 21:15 22:8 23:2020
1075 0:31 1:0.45 2:60 4:1 10:1 12:1185732 17:1 20:8 21:24 22:4 23:2020
775 0:31 1:0.35 2:55.00000000000001 3:1 10:1 12:1185732 17:1 20:8 21:24 22:4 23:2020
600 0:39 1:0.3 2:80.00000000000001 6:1 10:1 12:1128299 17:1 20:8 21:16 22:12 23:2021
175 0:31 1:0.43 2:49 6:1 10:1 12:1185732 17:1 18:1 20:8 21:24 22:4 23:2020
188 0:31 1:0.37 2:47 7:1 10:1 12:1185732 17:1 18:1 20:8 21:24 22:4 23:2020
215 0:31 1:0.37 2:50 7:1 10:1 12:1185732 17:1 18:1 20:8 21:13 22:9 23:2020
825 0:31 1:0.35 2:55.00000000000001 3:1 10:1 12:1185732 17:1 20:8 21:24 22:4 23:2020
600 0:39 1:0.3 2:80.00000000000001 7:1 10:1 12:1128299 17:1 20:8 21:16 22:12 23:2021
550 0:39 1:0.35 2:55.00000000000001 10:1 12:1185732 17:1 20:8 21:12 22:1 23:2021
700 0:31 1:0.3 2:50 6:1 10:1 12:1185732 17:1 20:8 21:24 22:4 23:2020
900 0:39 1:0.45 2:45 4:1 10:1 12:1185732 17:1 20:8 21:10 22:2 23:2021
775 0:31 1:0.3 2:55.00000000000001 6:1 10:1 12:1185732 17:1 20:8 21:14 22:9 23:2020
299 0:31 1:0.6 2:60 4:1 10:1 12:1185732 17:1 18:1 20:8 21:11 22:9 23:2020
550 0:39 1:0.35 2:45 3:1 10:1 12:1185732 17:1 20:8 21:10 22:2 23:2021
138 0:39 1:0.49 2:42 3:1 10:1 12:1185732 17:1 18:1 20:8 21:10 22:2 23:2021
169 0:31 1:0.44 2:38 6:1 10:1 12:1185732 17:1 18:1 20:8 21:15 22:8 23:2020
200 0:39 1:0.48 2:64 5:1 10:1 12:1128299 17:1 19:1 20:8 21:16 22:12 23:2021
825 0:31 1:0.25 2:55.00000000000001 7:1 10:1 12:1185732 17:1 20:8 21:13 22:9 23:2020
775 0:31 1:0.35 2:65 10:1 12:1185732 17:1 20:8 21:9 22:9 23:2020
925 0:31 1:0.5 2:70 5:1 10:1 12:1185732 17:1 20:8 21:10 22:9 23:2020
176 0:39 1:0.65 2:44 5:1 10:1 12:1185732 17:1 18:1 20:8 21:12 22:1 23:2021
196 0:31 1:0.45 2:52 10:1 12:1185732 17:1 18:1 20:8 21:24 22:4 23:2020
725 0:31 1:0.25 2:35 7:1 10:1 12:1185732 17:1 20:8 21:24 22:4 23:2020
170 0:39 1:0.37 2:30 6:1 10:1 12:1185732 17:1 19:1 20:8 21:12 22:1 23:2021
675 0:31 1:0.35 2:55.00000000000001 10:1 12:1185732 17:1 20:8 21:24 22:4 23:2020
189 0:39 1:0.47 2:44 3:1 10:1 12:1185732 17:1 18:1 20:8 21:12 22:1 23:2021
850 0:39 1:0.45 2:45 4:1 10:1 12:1185732 17:1 20:8 21:12 22:1 23:2021
304 0:31 1:0.5700000000000001 2:60 4:1 10:1 12:1185732 17:1 18:1 20:8 21:17 22:9 23:2020
650 0:31 1:0.3 2:40 6:1 10:1 12:1185732 17:1 20:8 21:24 22:4 23:2020
650 0:39 1:0.5 2:45 5:1 10:1 12:1185732 17:1 20:8 21:12 22:1 23:2021
204 0:39 1:0.34 2:58 6:1 10:1 12:1128299 17:1 19:1 20:8 21:16 22:12 23:2021
255 0:39 1:0.55 2:41 4:1 10:1 12:1185732 17:1 18:1 20:8 21:12 22:1 23:2021
525 0:39 1:0.2 2:90.00000000000001 10:1 12:1128299 17:1 20:8 21:16 22:12 23:2021
196 0:31 1:0.47 2:58 10:1 12:1185732 17:1 18:1 20:8 21:24 22:4 23:2020
300 0:31 1:0.5600000000000001 2:52 4:1 10:1 12:1185732 17:1 18:1 20:8 21:24 22:4 23:2020
650 0:39 1:0.35 2:45 3:1 10:1 12:1185732 17:1 20:8 21:12 22:1 23:2021
179 0:39 1:0.26 2:64 10:1 12:1128299 17:1 19:1 20:8 21:16 22:12 23:2021
165 0:39 1:0.41 2:31 3:1 10:1 12:1185732 17:1 19:1 20:8 21:10 22:2 23:2021
156 0:39 1:0.55 2:87 5:1 10:1 12:1128299 17:1 18:1 20:8 21:16 22:12 23:2021
288 0:39 1:0.47 2:36 4:1 10:1 12:1185732 17:1 19:1 20:8 21:10 22:2 23:2021
1150 0:31 1:0.45 2:65 4:1 10:1 12:1185732 17:1 20:8 21:11 22:9 23:2020
