350 0:10 1:0.4 2:30.00000000000001 3:1 8:1 12:1185732 17:1 20:47 21:18 22:9 23:2021
115 0:10 1:0.52 2:59 5:1 8:1 12:1185732 17:1 18:1 20:47 21:17 22:6 23:2021
125 0:4 1:0.35 2:25.00000000000001 7:1 8:1 12:1185732 17:1 20:19 21:21 22:4 23:2021
112 0:10 1:0.53 2:50 7:1 8:1 12:1185732 17:1 18:1 20:47 21:16 22:12 23:2021
158 0:40 1:0.42 2:27 4:1 8:1 12:1128299 17:1 19:1 20:37 21:2 22:1 23:2020
200 0:4 1:0.3 2:35 5:1 8:1 12:1185732 17:1 20:19 21:21 22:4 23:2021
87 0:10 1:0.51 2:37 3:1 8:1 12:1185732 17:1 18:1 20:47 21:18 22:5 23:2021
300 0:10 1:0.4 2:60.00000000000001 8:1 12:1185732 17:1 20:47 21:16 22:7 23:2021
950 1:0.45 2:65 4:1 8:1 12:1185732 17:1 20:31 21:8 22:7 23:2021
109 0:42 1:0.33 2:41 3:1 8:1 12:1128299 17:1 18:1 20:18 21:10 22:1 23:2021
375 0:42 1:0.2 2:45 3:1 8:1 12:1128299 17:1 19:1 20:18 21:10 22:1 23:2021
33 0:4 1:0.49 2:24 7:1 8:1 12:1185732 17:1 18:1 20:19 21:21 22:4 23:2021
650 1:0.5 2:70 5:1 8:1 12:1185732 17:1 20:31 21:9 22:11 23:2021
325 0:9 1:0.45 2:60.00000000000001 3:1 8:1 12:1185732 17:1 20:44 21:11 22:11 23:2021
625 1:0.5 2:60.00000000000001 5:1 8:1 12:1185732 17:1 20:31 21:8 22:9 23:2021
475 1:0.3 2:40 6:1 8:1 12:1185732 17:1 20:31 21:10 22:2 23:2021
600 1:0.35 2:50.00000000000001 3:1 8:1 12:1185732 17:1 20:31 21:9 22:11 23:2021
725 1:0.5 2:60.00000000000001 5:1 8:1 12:1185732 17:1 20:31 21:9 22:8 23:2021
470 0:4 1:0.4 2:49.99999999999999 4:1 8:1 12:1185732 17:1 20:19 21:20 22:5 23:2021
87 0:40 1:0.5 2:43 6:1 8:1 12:1128299 17:1 18:1 20:37 21:5 22:1 23:2020
13 0:4 1:0.47 2:27 6:1 8:1 12:1185732 17:1 18:1 20:19 21:21 22:4 23:2021
800 1:0.45 2:60.00000000000001 4:1 8:1 12:1185732 17:1 20:31 21:10 22:10 23:2021
152 1:0.36 2:34 7:1 8:1 12:1185732 17:1 18:1 20:31 21:9 22:4 23:2021
38 0:10 1:0.46 2:34 3:1 8:1 12:1185732 17:1 18:1 20:47 21:22 22:2 23:2021
250 0:4 1:0.35 2:45 3:1 8:1 12:1185732 17:1 20:19 21:22 22:6 23:2021
350 0:10 1:0.4 2:24.99999999999999 5:1 8:1 12:1185732 17:1 20:47 21:17 22:2 23:2021
196 1:0.45 2:56 3:1 8:1 12:1185732 17:1 18:1 20:31 21:8 22:7 23:2021
105 0:10 1:0.54 2:24 5:1 8:1 12:1185732 17:1 18:1 20:47 21:17 22:2 23:2021
225 0:4 1:0.3 2:35 5:1 8:1 12:1185732 17:1 20:19 21:22 22:2 23:2021
77 0:10 1:0.55 2:32 7:1 8:1 12:1185732 17:1 18:1 20:47 21:18 22:5 23:2021
176 1:0.64 2:68 5:1 8:1 12:1185732 17:1 18:1 20:31 21:9 22:11 23:2021
300 0:10 1:0.4 2:45.00000000000001 3:1 8:1 12:1185732 17:1 20:47 21:17 22:8 23:2021
475 1:0.35 2:55.00000000000001 8:1 12:1185732 17:1 20:31 21:8 22:3 23:2021
475 0:10 1:0.4 2:65.00000000000001 5:1 8:1 12:1185732 17:1 20:47 21:16 22:7 23:2021
56 0:10 1:0.55 2:60 8:1 12:1185732 17:1 18:1 20:47 21:17 22:4 23:2021
135 1:0.41 2:37 6:1 8:1 12:1185732 17:1 18:1 20:31 21:9 22:4 23:2021
350 0:10 1:0.4 2:54.99999999999999 5:1 8:1 12:1185732 17:1 20:47 21:18 22:5 23:2021
275 0:10 1:0.4 2:30 3:1 8:1 12:1185732 17:1 20:47 21:16 22:3 23:2021
131 1:0.48 2:51 8:1 12:1185732 17:1 18:1 20:31 21:8 22:9 23:2021
300 0:10 1:0.4 2:40 3:1 8:1 12:1185732 17:1 20:47 21:18 22:5 23:2021
194 1:0.65 2:66 5:1 8:1 12:1185732 17:1 18:1 20:31 21:8 22:7 23:2021
250 0:10 1:0.4 2:49.99999999999999 8:1 12:1185732 17:1 20:47 21:17 22:2 23:2021
575 1:0.35 2:55.00000000000001 3:1 8:1 12:1185732 17:1 20:31 21:8 22:5 23:2021
22 0:4 1:0.43 2:43 8:1 12:1185732 17:1 18:1 20:19 21:20 22:3 23:2021
625 1:0.25 2:55.00000000000001 7:1 8:1 12:1185732 17:1 20:31 21:9 22:8 23:2021
525 1:0.35 2:45 3:1 8:1 12:1185732 17:1 20:31 21:9 22:4 23:2021
600 1:0.5 2:45 5:1 8:1 12:1185732 17:1 20:31 21:9 22:4 23:2021
300 0:9 1:0.4 2:75 5:1 8:1 12:1185732 17:1 20:44 21:12 22:10 23:2021
69 0:10 1:0.52 2:33 6:1 8:1 12:1185732 17:1 18:1 20:47 21:17 22:6 23:2021
137 1:0.41 2:44 6:1 8:1 12:1185732 17:1 18:1 20:31 21:8 22:9 23:2021
140 0:40 1:0.47 2:36 7:1 8:1 12:1128299 17:1 19:1 20:37 21:4 22:1 23:2020
137 1:0.49 2:56 8:1 12:1185732 17:1 18:1 20:31 21:8 22:5 23:2021
400 0:10 1:0.4 2:55.00000000000001 3:1 8:1 12:1185732 17:1 20:47 21:16 22:7 23:2021
475 1:0.35 2:55.00000000000001 8:1 12:1185732 17:1 20:31 21:9 22:4 23:2021
650 0:10 1:0.4 2:60.00000000000001 4:1 8:1 12:1185732 17:1 20:47 21:16 22:7 23:2021
175 1:0.48 2:54 3:1 8:1 12:1185732 17:1 18:1 20:31 21:10 22:6 23:2021
425 0:4 1:0.4 2:35 4:1 8:1 12:1185732 17:1 20:19 21:21 22:4 23:2021
144 1:0.41 2:49 6:1 8:1 12:1185732 17:1 18:1 20:31 21:10 22:6 23:2021
225 0:10 1:0.4 2:25.00000000000001 6:1 8:1 12:1185732 17:1 20:47 21:18 22:9 23:2021
131 0:10 1:0.52 2:46 4:1 8:1 12:1185732 17:1 18:1 20:47 21:17 22:8 23:2021
156 1:0.62 2:64 5:1 8:1 12:1185732 17:1 18:1 20:31 21:10 22:10 23:2021
625 1:0.5 2:65 5:1 8:1 12:1185732 17:1 20:31 21:10 22:10 23:2021
182 0:10 1:0.52 2:55 4:1 8:1 12:1185732 17:1 18:1 20:47 21:16 22:7 23:2021
625 1:0.5 2:65 5:1 8:1 12:1185732 17:1 20:31 21:8 22:5 23:2021
81 0:9 1:0.53 2:71 5:1 8:1 12:1185732 17:1 18:1 20:44 21:12 22:10 23:2021
87 0:10 1:0.54 2:54 8:1 12:1185732 17:1 18:1 20:47 21:16 22:7 23:2021
325 0:10 1:0.4 2:50 5:1 8:1 12:1185732 17:1 20:47 21:17 22:4 23:2021
263 1:0.5600000000000001 2:59 4:1 8:1 12:1185732 17:1 18:1 20:31 21:10 22:6 23:2021
81 0:9 1:0.5800000000000001 2:55 3:1 8:1 12:1185732 17:1 18:1 20:44 21:11 22:11 23:2021
169 1:0.5 2:51 3:1 8:1 12:1185732 17:1 18:1 20:31 21:8 22:12 23:2021
250 1:0.5600000000000001 2:62 4:1 8:1 12:1185732 17:1 18:1 20:31 21:9 22:8 23:2021
50 0:4 1:0.35 2:30 6:1 8:1 12:1185732 17:1 20:19 21:22 22:2 23:2021
165 1:0.46 2:44 3:1 8:1 12:1185732 17:1 18:1 20:31 21:8 22:3 23:2021
450 0:9 1:0.45 2:70 4:1 8:1 12:1185732 17:1 20:44 21:11 22:11 23:2021
175 0:4 1:0.3 2:35 5:1 8:1 12:1185732 17:1 20:19 21:20 22:3 23:2021
500 0:4 1:0.4 2:49.99999999999999 4:1 8:1 12:1185732 17:1 20:19 21:22 22:6 23:2021
150 1:0.49 2:62 8:1 12:1185732 17:1 18:1 20:31 21:10 22:6 23:2021
161 1:0.36 2:33 7:1 8:1 12:1185732 17:1 18:1 20:31 21:8 22:3 23:2021
47 0:10 1:0.52 2:25 6:1 8:1 12:1185732 17:1 18:1 20:47 21:17 22:4 23:2021
25 0:4 1:0.35 2:30 6:1 8:1 12:1185732 17:1 20:19 21:20 22:3 23:2021
130 1:0.4 2:47 6:1 8:1 12:1185732 17:1 18:1 20:31 21:8 22:5 23:2021
154 1:0.45 2:62 8:1 12:1185732 17:1 18:1 20:31 21:9 22:11 23:2021
545 1:0.25 2:50.00000000000001 7:1 8:1 12:1185732 17:1 20:31 21:9 22:11 23:2021
59 0:10 1:0.5 2:37 8:1 12:1185732 17:1 18:1 20:47 21:16 22:3 23:2021
63 0:4 1:0.41 2:52 5:1 8:1 12:1185732 17:1 18:1 20:19 21:20 22:5 23:2021
425 0:10 1:0.4 2:55.00000000000001 5:1 8:1 12:1185732 17:1 20:47 21:17 22:8 23:2021
50 0:10 1:0.55 2:33 6:1 8:1 12:1185732 17:1 18:1 20:47 21:18 22:5 23:2021
775 1:0.45 2:60.00000000000001 4:1 8:1 12:1185732 17:1 20:31 21:9 22:11 23:2021
47 0:10 1:0.53 2:32 6:1 8:1 12:1185732 17:1 18:1 20:47 21:17 22:10 23:2021
72 0:10 1:0.51 2:36 6:1 8:1 12:1185732 17:1 18:1 20:47 21:17 22:8 23:2021
150 1:0.4 2:41 6:1 8:1 12:1185732 17:1 18:1 20:31 21:9 22:8 23:2021
53 0:4 1:0.49 2:24 7:1 8:1 12:1185732 17:1 18:1 20:19 21:20 22:3 23:2021
625 1:0.25 2:55.00000000000001 7:1 8:1 12:1185732 17:1 20:31 21:8 22:7 23:2021
450 0:40 1:0.4 2:35 4:1 8:1 12:1128299 17:1 19:1 20:37 21:2 22:1 23:2020
87 0:10 1:0.52 2:38 7:1 8:1 12:1185732 17:1 18:1 20:47 21:17 22:8 23:2021
575 1:0.3 2:45 6:1 8:1 12:1185732 17:1 20:31 21:9 22:8 23:2021
91 0:10 1:0.54 2:19 7:1 8:1 12:1185732 17:1 18:1 20:47 21:16 22:3 23:2021
98 0:10 1:0.53 2:49 7:1 8:1 12:1185732 17:1 18:1 20:47 21:16 22:7 23:2021
98 0:42 1:0.35 2:33 4:1 8:1 12:1128299 17:1 18:1 20:18 21:10 22:1 23:2021
600 1:0.35 2:65 8:1 12:1185732 17:1 20:31 21:8 22:7 23:2021
275 0:10 1:0.4 2:35 6:1 8:1 12:1185732 17:1 20:47 21:17 22:6 23:2021
46 0:10 1:0.47 2:24 7:1 8:1 12:1185732 17:1 18:1 20:47 21:22 22:2 23:2021
169 1:0.63 2:59 5:1 8:1 12:1185732 17:1 18:1 20:31 21:8 22:5 23:2021
168 1:0.46 2:62 8:1 12:1185732 17:1 18:1 20:31 21:8 22:7 23:2021
550 0:10 1:0.4 2:35 4:1 8:1 12:1185732 17:1 20:47 21:18 22:9 23:2021
53 0:10 1:0.55 2:41 8:1 12:1185732 17:1 18:1 20:47 21:17 22:10 23:2021
94 0:10 1:0.51 2:47 5:1 8:1 12:1185732 17:1 18:1 20:47 21:17 22:4 23:2021
50 0:4 1:0.35 2:30 6:1 8:1 12:1185732 17:1 20:19 21:21 22:4 23:2021
116 0:10 1:0.53 2:50 3:1 8:1 12:1185732 17:1 18:1 20:47 21:16 22:7 23:2021
575 1:0.3 2:50 6:1 8:1 12:1185732 17:1 20:31 21:10 22:6 23:2021
225 0:10 1:0.4 2:35 8:1 12:1185732 17:1 20:47 21:18 22:9 23:2021
125 0:4 1:0.3 2:49.99999999999999 8:1 12:1185732 17:1 20:19 21:20 22:5 23:2021
124 1:0.47 2:50 8:1 12:1185732 17:1 18:1 20:31 21:9 22:4 23:2021
117 0:40 1:0.54 2:41 7:1 8:1 12:1128299 17:1 18:1 20:37 21:4 22:1 23:2020
133 1:0.42 2:37 6:1 8:1 12:1185732 17:1 18:1 20:31 21:10 22:2 23:2021
65 0:10 1:0.53 2:48 8:1 12:1185732 17:1 18:1 20:47 21:17 22:2 23:2021
445 0:4 1:0.4 2:35 4:1 8:1 12:1185732 17:1 20:19 21:20 22:3 23:2021
38 0:4 1:0.48 2:36 7:1 8:1 12:1185732 17:1 18:1 20:19 21:20 22:5 23:2021
595 0:10 1:0.4 2:60 4:1 8:1 12:1185732 17:1 20:47 21:18 22:5 23:2021
63 0:4 1:0.43 2:34 5:1 8:1 12:1185732 17:1 18:1 20:19 21:22 22:2 23:2021
68 0:10 1:0.54 2:49 8:1 12:1185732 17:1 18:1 20:47 21:17 22:8 23:2021
125 0:10 1:0.35 2:35 3:1 8:1 12:1185732 17:1 20:47 21:22 22:2 23:2021
175 0:10 1:0.4 2:35 6:1 8:1 12:1185732 17:1 20:47 21:17 22:2 23:2021
252 1:0.5900000000000001 2:44 4:1 8:1 12:1185732 17:1 18:1 20:31 21:8 22:3 23:2021
59 0:42 1:0.39 2:43 6:1 8:1 12:1128299 17:1 18:1 20:18 21:10 22:1 23:2021
325 0:10 1:0.4 2:20 7:1 8:1 12:1185732 17:1 20:47 21:16 22:3 23:2021
154 0:10 1:0.51 2:34 4:1 8:1 12:1185732 17:1 18:1 20:47 21:18 22:9 23:2021
161 1:0.47 2:53 3:1 8:1 12:1185732 17:1 18:1 20:31 21:8 22:5 23:2021
275 0:10 1:0.4 2:35 7:1 8:1 12:1185732 17:1 20:47 21:18 22:5 23:2021
100 0:4 1:0.35 2:40 6:1 8:1 12:1185732 17:1 20:19 21:20 22:5 23:2021
147 1:0.36 2:45 7:1 8:1 12:1185732 17:1 18:1 20:31 21:9 22:11 23:2021
870 1:0.45 2:45 4:1 8:1 12:1185732 17:1 20:31 21:8 22:3 23:2021
150 1:0.43 2:53 6:1 8:1 12:1185732 17:1 18:1 20:31 21:8 22:7 23:2021
125 0:4 1:0.3 2:45 8:1 12:1185732 17:1 20:19 21:22 22:2 23:2021
115 0:10 1:0.54 2:54 5:1 8:1 12:1185732 17:1 18:1 20:47 21:17 22:8 23:2021
61 0:10 1:0.52 2:32 8:1 12:1185732 17:1 18:1 20:47 21:18 22:9 23:2021
525 1:0.25 2:50.00000000000001 7:1 8:1 12:1185732 17:1 20:31 21:10 22:10 23:2021
149 1:0.48 2:52 8:1 12:1185732 17:1 18:1 20:31 21:9 22:8 23:2021
325 0:10 1:0.4 2:50 7:1 8:1 12:1185732 17:1 20:47 21:16 22:7 23:2021
90 0:10 1:0.55 2:42 3:1 8:1 12:1185732 17:1 18:1 20:47 21:17 22:8 23:2021
156 1:0.46 2:46 3:1 8:1 12:1185732 17:1 18:1 20:31 21:10 22:10 23:2021
575 1:0.3 2:55.00000000000001 6:1 8:1 12:1185732 17:1 20:31 21:8 22:7 23:2021
400 0:10 1:0.4 2:55.00000000000001 7:1 8:1 12:1185732 17:1 20:47 21:16 22:12 23:2021
182 1:0.64 2:42 5:1 8:1 12:1185732 17:1 18:1 20:31 21:10 22:2 23:2021
49 0:4 1:0.45 2:33 5:1 8:1 12:1185732 17:1 18:1 20:19 21:20 22:3 23:2021
320 0:9 1:0.35 2:60.00000000000001 7:1 8:1 12:1185732 17:1 20:44 21:11 22:11 23:2021
225 0:10 1:0.4 2:40 8:1 12:1185732 17:1 20:47 21:16 22:3 23:2021
161 1:0.6 2:43 5:1 8:1 12:1185732 17:1 18:1 20:31 21:8 22:3 23:2021
68 0:10 1:0.54 2:19 7:1 8:1 12:1185732 17:1 18:1 20:47 21:17 22:4 23:2021
81 0:10 1:0.54 2:29 5:1 8:1 12:1185732 17:1 18:1 20:47 21:16 22:3 23:2021
825 1:0.45 2:45 4:1 8:1 12:1185732 17:1 20:31 21:9 22:4 23:2021
135 1:0.41 2:45 6:1 8:1 12:1185732 17:1 18:1 20:31 21:10 22:10 23:2021
275 0:10 1:0.4 2:35 3:1 8:1 12:1185732 17:1 20:47 21:17 22:10 23:2021
150 1:0.38 2:48 7:1 8:1 12:1185732 17:1 18:1 20:31 21:10 22:6 23:2021
700 1:0.35 2:60.00000000000001 3:1 8:1 12:1185732 17:1 20:31 21:9 22:8 23:2021
600 0:10 1:0.4 2:45 4:1 8:1 12:1185732 17:1 20:47 21:17 22:6 23:2021
52 0:4 1:0.44 2:32 5:1 8:1 12:1185732 17:1 18:1 20:19 21:21 22:4 23:2021
15 0:4 1:0.45 2:41 8:1 12:1185732 17:1 18:1 20:19 21:21 22:4 23:2021
125 0:4 1:0.5 2:47 4:1 8:1 12:1185732 17:1 18:1 20:19 21:22 22:6 23:2021
525 1:0.35 2:55.00000000000001 8:1 12:1185732 17:1 20:31 21:8 22:9 23:2021
59 0:10 1:0.5 2:23 6:1 8:1 12:1185732 17:1 18:1 20:47 21:18 22:9 23:2021
156 1:0.6 2:59 5:1 8:1 12:1185732 17:1 18:1 20:31 21:8 22:9 23:2021
138 1:0.35 2:41 7:1 8:1 12:1185732 17:1 18:1 20:31 21:8 22:9 23:2021
550 0:10 1:0.4 2:30 4:1 8:1 12:1185732 17:1 20:47 21:17 22:4 23:2021
80 0:10 1:0.52 2:32 3:1 8:1 12:1185732 17:1 18:1 20:47 21:17 22:10 23:2021
625 1:0.35 2:50.00000000000001 3:1 8:1 12:1185732 17:1 20:31 21:10 22:10 23:2021
126 0:9 1:0.6 2:64 4:1 8:1 12:1185732 17:1 18:1 20:44 21:11 22:11 23:2021
625 1:0.35 2:55.00000000000001 3:1 8:1 12:1185732 17:1 20:31 21:10 22:6 23:2021
275 0:10 1:0.4 2:40 6:1 8:1 12:1185732 17:1 20:47 21:17 22:8 23:2021
156 1:0.65 2:41 5:1 8:1 12:1185732 17:1 18:1 20:31 21:9 22:4 23:2021
217 1:0.55 2:56 4:1 8:1 12:1185732 17:1 18:1 20:31 21:9 22:11 23:2021
500 1:0.3 2:50.00000000000001 6:1 8:1 12:1185732 17:1 20:31 21:10 22:10 23:2021
31 0:4 1:0.47 2:32 3:1 8:1 12:1185732 17:1 18:1 20:19 21:21 22:4 23:2021
175 0:4 1:0.35 2:45 3:1 8:1 12:1185732 17:1 20:19 21:20 22:5 23:2021
675 1:0.35 2:55.00000000000001 3:1 8:1 12:1185732 17:1 20:31 21:8 22:12 23:2021
30 0:4 1:0.48 2:37 6:1 8:1 12:1185732 17:1 18:1 20:19 21:20 22:5 23:2021
700 1:0.35 2:60.00000000000001 3:1 8:1 12:1185732 17:1 20:31 21:8 22:7 23:2021
500 1:0.35 2:60.00000000000001 8:1 12:1185732 17:1 20:31 21:10 22:10 23:2021
175 0:10 1:0.4 2:44.99999999999999 8:1 12:1185732 17:1 20:47 21:17 22:10 23:2021
575 1:0.3 2:50.00000000000001 6:1 8:1 12:1185732 17:1 20:31 21:9 22:11 23:2021
165 0:10 1:0.51 2:28 4:1 8:1 12:1185732 17:1 18:1 20:47 21:16 22:3 23:2021
275 0:10 1:0.4 2:45 8:1 12:1185732 17:1 20:47 21:17 22:6 23:2021
261 1:0.6 2:50 4:1 8:1 12:1185732 17:1 18:1 20:31 21:8 22:5 23:2021
128 0:4 1:0.51 2:33 4:1 8:1 12:1185732 17:1 18:1 20:19 21:21 22:4 23:2021
154 1:0.46 2:50 8:1 12:1185732 17:1 18:1 20:31 21:10 22:2 23:2021
525 1:0.25 2:35 7:1 8:1 12:1185732 17:1 20:31 21:9 22:4 23:2021
250 0:10 1:0.4 2:30 3:1 8:1 12:1185732 17:1 20:47 21:17 22:4 23:2021
550 1:0.35 2:45 3:1 8:1 12:1185732 17:1 20:31 21:8 22:3 23:2021
375 0:42 1:0.25 2:45 7:1 8:1 12:1128299 17:1 19:1 20:18 21:10 22:1 23:2021
425 0:10 1:0.4 2:65.00000000000001 5:1 8:1 12:1185732 17:1 20:47 21:17 22:6 23:2021
7 0:4 1:0.46 2:29 6:1 8:1 12:1185732 17:1 18:1 20:19 21:20 22:3 23:2021
144 1:0.4 2:47 6:1 8:1 12:1185732 17:1 18:1 20:31 21:9 22:11 23:2021
870 1:0.45 2:55.00000000000001 4:1 8:1 12:1185732 17:1 20:31 21:8 22:5 23:2021
575 1:0.5 2:45 5:1 8:1 12:1185732 17:1 20:31 21:8 22:3 23:2021
208 1:0.5700000000000001 2:57 4:1 8:1 12:1185732 17:1 18:1 20:31 21:10 22:10 23:2021
175 0:10 1:0.4 2:24.99999999999999 6:1 8:1 12:1185732 17:1 20:47 21:17 22:4 23:2021
875 1:0.45 2:65 4:1 8:1 12:1185732 17:1 20:31 21:8 22:12 23:2021
147 1:0.45 2:43 3:1 8:1 12:1185732 17:1 18:1 20:31 21:9 22:4 23:2021
74 0:10 1:0.55 2:41 8:1 12:1185732 17:1 18:1 20:47 21:17 22:6 23:2021
14 0:4 1:0.5 2:28 6:1 8:1 12:1185732 17:1 18:1 20:19 21:22 22:2 23:2021
101 0:42 1:0.4 2:43 7:1 8:1 12:1128299 17:1 18:1 20:18 21:10 22:1 23:2021
525 1:0.3 2:45 6:1 8:1 12:1185732 17:1 20:31 21:8 22:9 23:2021
450 0:40 1:0.4 2:45 7:1 8:1 12:1128299 17:1 19:1 20:37 21:4 22:1 23:2020
575 1:0.25 2:35 7:1 8:1 12:1185732 17:1 20:31 21:8 22:3 23:2021
135 0:40 1:0.31 2:35 3:1 8:1 12:1128299 17:1 19:1 20:37 21:3 22:1 23:2020
179 0:10 1:0.52 2:58 4:1 8:1 12:1185732 17:1 18:1 20:47 21:18 22:5 23:2021
102 0:9 1:0.37 2:46 7:1 8:1 12:1185732 17:1 19:1 20:44 21:11 22:11 23:2021
275 0:10 1:0.4 2:50 6:1 8:1 12:1185732 17:1 20:47 21:16 22:7 23:2021
125 0:4 1:0.35 2:35 3:1 8:1 12:1185732 17:1 20:19 21:21 22:4 23:2021
245 1:0.5800000000000001 2:59 4:1 8:1 12:1185732 17:1 18:1 20:31 21:8 22:12 23:2021
775 1:0.5 2:70 5:1 8:1 12:1185732 17:1 20:31 21:8 22:7 23:2021
650 1:0.5 2:45 5:1 8:1 12:1185732 17:1 20:31 21:10 22:2 23:2021
300 0:40 1:0.35 2:45 6:1 8:1 12:1128299 17:1 19:1 20:37 21:5 22:1 23:2020
175 0:4 1:0.35 2:25.00000000000001 7:1 8:1 12:1185732 17:1 20:19 21:20 22:3 23:2021
50 0:4 1:0.3 2:45 8:1 12:1185732 17:1 20:19 21:21 22:4 23:2021
81 0:10 1:0.54 2:33 7:1 8:1 12:1185732 17:1 18:1 20:47 21:17 22:6 23:2021
210 1:0.45 2:55 3:1 8:1 12:1185732 17:1 18:1 20:31 21:9 22:8 23:2021
75 0:4 1:0.3 2:45 8:1 12:1185732 17:1 20:19 21:20 22:3 23:2021
175 0:10 1:0.4 2:35 7:1 8:1 12:1185732 17:1 20:47 21:17 22:10 23:2021
77 0:10 1:0.51 2:48 6:1 8:1 12:1185732 17:1 18:1 20:47 21:16 22:7 23:2021
36 0:4 1:0.42 2:49 8:1 12:1185732 17:1 18:1 20:19 21:20 22:5 23:2021
150 0:4 1:0.35 2:40 7:1 8:1 12:1185732 17:1 20:19 21:20 22:5 23:2021
300 0:10 1:0.4 2:40 7:1 8:1 12:1185732 17:1 20:47 21:17 22:8 23:2021
325 0:10 1:0.4 2:30 5:1 8:1 12:1185732 17:1 20:47 21:16 22:3 23:2021
