275 0:21 1:0.25 2:55.00000000000001 6:1 11:1 12:1128299 16:1 19:1 20:10 21:10 22:10 23:2021
700 0:21 1:0.25 2:75.00000000000001 4:1 11:1 12:1128299 16:1 19:1 20:10 21:9 22:12 23:2021
325 0:21 1:0.25 2:65.00000000000001 6:1 11:1 12:1128299 16:1 19:1 20:10 21:11 22:9 23:2021
147 0:21 1:0.27 2:69 11:1 12:1128299 16:1 18:1 20:10 21:10 22:8 23:2021
189 0:21 1:0.4 2:68 4:1 11:1 12:1128299 16:1 18:1 20:10 21:9 22:12 23:2021
123 0:21 1:0.4 2:50 7:1 11:1 12:1128299 16:1 18:1 20:10 21:10 22:11 23:2021
70 0:21 1:0.28 2:63 11:1 12:1128299 16:1 18:1 20:10 21:10 22:10 23:2021
182 0:21 1:0.3 2:77 3:1 11:1 12:1128299 16:1 18:1 20:10 21:9 22:12 23:2021
104 0:21 1:0.39 2:60 6:1 11:1 12:1128299 16:1 18:1 20:10 21:10 22:11 23:2021
550 0:21 1:0.2 2:70.00000000000001 3:1 11:1 12:1128299 16:1 19:1 20:10 21:11 22:9 23:2021
75 0:21 1:0.51 2:64 5:1 11:1 12:1128299 16:1 18:1 20:10 21:10 22:10 23:2021
124 0:21 1:0.4 2:52 4:1 11:1 12:1128299 16:1 18:1 20:10 21:10 22:10 23:2021
149 0:21 1:0.36 2:62 4:1 11:1 12:1128299 16:1 18:1 20:10 21:11 22:9 23:2021
158 0:21 1:0.37 2:51 4:1 11:1 12:1128299 16:1 18:1 20:10 21:10 22:11 23:2021
375 0:21 1:0.4 2:60 5:1 11:1 12:1128299 16:1 19:1 20:10 21:11 22:9 23:2021
600 0:21 1:0.2 2:60.00000000000001 3:1 11:1 12:1128299 16:1 19:1 20:10 21:10 22:11 23:2021
168 0:21 1:0.32 2:56 3:1 11:1 12:1128299 16:1 18:1 20:10 21:10 22:11 23:2021
87 0:21 1:0.35 2:56 7:1 11:1 12:1128299 16:1 18:1 20:10 21:10 22:10 23:2021
525 0:21 1:0.15 2:70 11:1 12:1128299 16:1 19:1 20:10 21:10 22:8 23:2021
700 0:21 1:0.2 2:85.00000000000001 3:1 11:1 12:1128299 16:1 19:1 20:10 21:9 22:12 23:2021
500 0:21 1:0.4 2:90.00000000000001 5:1 11:1 12:1128299 16:1 19:1 20:10 21:10 22:11 23:2021
140 0:21 1:0.52 2:82 5:1 11:1 12:1128299 16:1 18:1 20:10 21:10 22:11 23:2021
425 0:21 1:0.25 2:55.00000000000001 7:1 11:1 12:1128299 16:1 19:1 20:10 21:10 22:11 23:2021
375 0:21 1:0.15 2:85.00000000000001 11:1 12:1128299 16:1 19:1 20:10 21:10 22:11 23:2021
88 0:21 1:0.53 2:72 5:1 11:1 12:1128299 16:1 18:1 20:10 21:10 22:8 23:2021
83 0:21 1:0.37 2:50 6:1 11:1 12:1128299 16:1 18:1 20:10 21:10 22:10 23:2021
250 0:21 1:0.15 2:65 11:1 12:1128299 16:1 19:1 20:10 21:10 22:10 23:2021
300 0:21 1:0.4 2:70 5:1 11:1 12:1128299 16:1 19:1 20:10 21:10 22:10 23:2021
550 0:21 1:0.25 2:65.00000000000001 4:1 11:1 12:1128299 16:1 19:1 20:10 21:11 22:9 23:2021
149 0:21 1:0.33 2:69 3:1 11:1 12:1128299 16:1 18:1 20:10 21:11 22:9 23:2021
105 0:21 1:0.39 2:64 7:1 11:1 12:1128299 16:1 18:1 20:10 21:11 22:9 23:2021
375 0:21 1:0.25 2:65.00000000000001 7:1 11:1 12:1128299 16:1 19:1 20:10 21:11 22:9 23:2021
