88 0:27 1:0.52 2:14 7:1 9:1 12:1197831 16:1 18:1 20:3 21:19 22:9 23:2021
145 0:27 1:0.47 2:33 5:1 9:1 12:1197831 16:1 19:1 20:3 21:19 22:5 23:2021
250 0:27 1:0.4 2:20 6:1 9:1 12:1197831 16:1 18:1 20:3 21:21 22:2 23:2021
305 0:22 1:0.38 2:33 3:1 9:1 12:1197831 16:1 19:1 20:42 21:31 22:8 23:2020
203 0:22 1:0.55 2:48 6:1 9:1 12:1197831 16:1 18:1 20:42 21:23 22:10 23:2020
104 0:27 1:0.54 2:38 7:1 9:1 12:1197831 16:1 18:1 20:3 21:21 22:6 23:2021
200 0:27 1:0.4 2:20 6:1 9:1 12:1197831 16:1 18:1 20:3 21:19 22:3 23:2021
126 0:27 1:0.48 2:39 3:1 9:1 12:1197831 16:1 18:1 20:3 21:19 22:9 23:2021
113 0:27 1:0.5 2:38 3:1 9:1 12:1197831 16:1 18:1 20:3 21:19 22:5 23:2021
400 0:27 1:0.4 2:30 5:1 9:1 12:1197831 16:1 18:1 20:3 21:20 22:4 23:2021
425 0:27 1:0.35 2:20.00000000000001 3:1 9:1 12:1197831 16:1 18:1 20:3 21:21 22:10 23:2021
210 0:22 1:0.62 2:53 5:1 9:1 12:1197831 16:1 18:1 20:42 21:16 22:9 23:2020
400 0:27 1:0.4 2:45 6:1 9:1 12:1197831 16:1 18:1 20:3 21:19 22:7 23:2021
350 0:24 1:0.35 2:35.00000000000001 9:1 12:1185732 16:1 18:1 20:23 21:18 22:10 23:2021
109 0:24 1:0.45 2:20 6:1 9:1 12:1185732 16:1 19:1 20:23 21:18 22:10 23:2021
350 0:22 1:0.5700000000000001 2:38 5:1 9:1 12:1197831 16:1 19:1 20:42 21:23 22:8 23:2020
281 0:22 1:0.39 2:34 7:1 9:1 12:1197831 16:1 19:1 20:42 21:22 22:10 23:2020
264 0:22 1:0.42 2:33 4:1 9:1 12:1197831 16:1 19:1 20:42 21:5 22:9 23:2020
319 0:22 1:0.45 2:37 7:1 9:1 12:1197831 16:1 18:1 20:42 21:26 22:8 23:2020
98 0:27 1:0.52 2:37 6:1 9:1 12:1197831 16:1 18:1 20:3 21:21 22:6 23:2021
295 0:22 1:0.4 2:29 4:1 9:1 12:1197831 16:1 19:1 20:42 21:24 22:8 23:2020
123 0:24 1:0.5 2:19 7:1 9:1 12:1185732 16:1 18:1 20:23 21:16 22:9 23:2021
111 0:27 1:0.37 2:23 9:1 12:1197831 16:1 19:1 20:3 21:21 22:2 23:2021
145 0:24 1:0.45 2:25 3:1 9:1 12:1185732 16:1 18:1 20:23 21:18 22:10 23:2021
90 0:27 1:0.47 2:24 6:1 9:1 12:1197831 16:1 19:1 20:3 21:19 22:5 23:2021
73 0:27 1:0.48 2:37 9:1 12:1197831 16:1 18:1 20:3 21:20 22:4 23:2021
116 0:27 1:0.51 2:28 5:1 9:1 12:1197831 16:1 18:1 20:3 21:20 22:4 23:2021
107 0:27 1:0.37 2:14 3:1 9:1 12:1197831 16:1 19:1 20:3 21:19 22:3 23:2021
189 0:22 1:0.5800000000000001 2:39 6:1 9:1 12:1197831 16:1 18:1 20:42 21:15 22:8 23:2020
270 0:22 1:0.54 2:39 5:1 9:1 12:1197831 16:1 19:1 20:42 21:4 22:9 23:2020
250 0:22 1:0.64 2:47 5:1 9:1 12:1197831 16:1 18:1 20:42 21:23 22:8 23:2020
210 0:22 1:0.6 2:36 6:1 9:1 12:1197831 16:1 18:1 20:42 21:27 22:8 23:2020
675 0:22 1:0.45 2:50 6:1 9:1 12:1197831 16:1 19:1 20:42 21:23 22:10 23:2020
525 0:24 1:0.35 2:45.00000000000001 3:1 9:1 12:1185732 16:1 18:1 20:23 21:16 22:9 23:2021
500 0:24 1:0.5 2:35.00000000000001 5:1 9:1 12:1185732 16:1 18:1 20:23 21:16 22:9 23:2021
179 0:24 1:0.44 2:37 7:1 9:1 12:1185732 16:1 19:1 20:23 21:17 22:8 23:2021
122 0:24 1:0.45 2:46 9:1 12:1185732 16:1 18:1 20:23 21:17 22:8 23:2021
165 0:27 1:0.43 2:48 5:1 9:1 12:1197831 16:1 19:1 20:3 21:21 22:6 23:2021
78 0:27 1:0.53 2:34 6:1 9:1 12:1197831 16:1 18:1 20:3 21:19 22:5 23:2021
275 0:27 1:0.4 2:20.00000000000001 6:1 9:1 12:1197831 16:1 18:1 20:3 21:21 22:10 23:2021
297 0:22 1:0.46 2:39 7:1 9:1 12:1197831 16:1 18:1 20:42 21:1 22:9 23:2020
750 0:22 1:0.35 2:50 7:1 9:1 12:1197831 16:1 19:1 20:42 21:13 22:9 23:2020
124 0:27 1:0.45 2:28 7:1 9:1 12:1197831 16:1 19:1 20:3 21:21 22:6 23:2021
850 0:22 1:0.35 2:45 3:1 9:1 12:1197831 16:1 19:1 20:42 21:6 22:9 23:2020
600 0:22 1:0.3 2:45 9:1 12:1197831 16:1 19:1 20:42 21:16 22:8 23:2020
168 0:22 1:0.5800000000000001 2:45 6:1 9:1 12:1197831 16:1 18:1 20:42 21:14 22:9 23:2020
169 0:22 1:0.45 2:41 9:1 12:1197831 16:1 18:1 20:42 21:22 22:8 23:2020
65 0:27 1:0.46 2:32 9:1 12:1197831 16:1 18:1 20:3 21:19 22:3 23:2021
289 0:22 1:0.5700000000000001 2:44 5:1 9:1 12:1197831 16:1 19:1 20:42 21:25 22:10 23:2020
206 0:27 1:0.47 2:15 4:1 9:1 12:1197831 16:1 19:1 20:3 21:19 22:3 23:2021
176 0:24 1:0.61 2:61 5:1 9:1 12:1185732 16:1 18:1 20:23 21:16 22:7 23:2021
140 0:27 1:0.42 2:22 5:1 9:1 12:1197831 16:1 19:1 20:3 21:19 22:9 23:2021
1100 0:22 1:0.35 2:40 7:1 9:1 12:1197831 16:1 19:1 20:42 21:26 22:8 23:2020
98 0:24 1:0.5 2:32 9:1 12:1185732 16:1 18:1 20:23 21:18 22:10 23:2021
140 0:27 1:0.44 2:32 7:1 9:1 12:1197831 16:1 19:1 20:3 21:19 22:7 23:2021
175 0:22 1:0.43 2:44 9:1 12:1197831 16:1 18:1 20:42 21:9 22:9 23:2020
158 0:24 1:0.41 2:33 3:1 9:1 12:1185732 16:1 19:1 20:23 21:16 22:9 23:2021
126 0:27 1:0.52 2:47 7:1 9:1 12:1197831 16:1 18:1 20:3 21:20 22:8 23:2021
216 0:22 1:0.47 2:43 3:1 9:1 12:1197831 16:1 18:1 20:42 21:12 22:9 23:2020
276 0:22 1:0.63 2:37 5:1 9:1 12:1197831 16:1 18:1 20:42 21:17 22:8 23:2020
169 0:24 1:0.65 2:53 5:1 9:1 12:1185732 16:1 18:1 20:23 21:17 22:8 23:2021
63 0:27 1:0.53 2:20 6:1 9:1 12:1197831 16:1 18:1 20:3 21:20 22:4 23:2021
149 0:27 1:0.4 2:40 9:1 12:1197831 16:1 19:1 20:3 21:19 22:7 23:2021
111 0:27 1:0.55 2:44 5:1 9:1 12:1197831 16:1 18:1 20:3 21:19 22:5 23:2021
315 0:22 1:0.38 2:36 7:1 9:1 12:1197831 16:1 19:1 20:42 21:7 22:9 23:2020
238 0:22 1:0.48 2:41 4:1 9:1 12:1197831 16:1 18:1 20:42 21:26 22:10 23:2020
400 0:27 1:0.4 2:40 6:1 9:1 12:1197831 16:1 18:1 20:3 21:20 22:8 23:2021
245 0:22 1:0.51 2:31 6:1 9:1 12:1197831 16:1 19:1 20:42 21:15 22:8 23:2020
259 0:22 1:0.45 2:41 3:1 9:1 12:1197831 16:1 18:1 20:42 21:31 22:8 23:2020
132 0:27 1:0.45 2:29 6:1 9:1 12:1197831 16:1 19:1 20:3 21:20 22:8 23:2021
130 0:24 1:0.62 2:32 5:1 9:1 12:1185732 16:1 18:1 20:23 21:16 22:9 23:2021
195 0:22 1:0.32 2:30 9:1 12:1197831 16:1 19:1 20:42 21:24 22:10 23:2020
160 0:27 1:0.54 2:54 5:1 9:1 12:1197831 16:1 18:1 20:3 21:21 22:6 23:2021
150 0:22 1:0.41 2:42 9:1 12:1197831 16:1 18:1 20:42 21:15 22:9 23:2020
475 0:24 1:0.4 2:40 6:1 9:1 12:1185732 16:1 18:1 20:23 21:17 22:8 23:2021
213 0:22 1:0.46 2:41 3:1 9:1 12:1197831 16:1 18:1 20:42 21:6 22:9 23:2020
91 0:27 1:0.55 2:34 7:1 9:1 12:1197831 16:1 18:1 20:3 21:19 22:5 23:2021
900 0:22 1:0.5 2:50 5:1 9:1 12:1197831 16:1 19:1 20:42 21:4 22:9 23:2020
325 0:27 1:0.35 2:35 9:1 12:1197831 16:1 18:1 20:3 21:21 22:2 23:2021
215 0:24 1:0.54 2:56 4:1 9:1 12:1185732 16:1 18:1 20:23 21:17 22:8 23:2021
625 0:24 1:0.5 2:55.00000000000001 5:1 9:1 12:1185732 16:1 18:1 20:23 21:17 22:8 23:2021
119 0:27 1:0.44 2:27 7:1 9:1 12:1197831 16:1 19:1 20:3 21:19 22:5 23:2021
216 0:24 1:0.46 2:24 4:1 9:1 12:1185732 16:1 19:1 20:23 21:18 22:10 23:2021
272 0:22 1:0.39 2:31 4:1 9:1 12:1197831 16:1 19:1 20:42 21:11 22:9 23:2020
525 0:27 1:0.35 2:55.00000000000001 3:1 9:1 12:1197831 16:1 18:1 20:3 21:20 22:8 23:2021
264 0:22 1:0.4 2:27 7:1 9:1 12:1197831 16:1 19:1 20:42 21:20 22:8 23:2020
165 0:24 1:0.37 2:17 3:1 9:1 12:1185732 16:1 19:1 20:23 21:18 22:10 23:2021
300 0:27 1:0.4 2:15 7:1 9:1 12:1197831 16:1 18:1 20:3 21:20 22:4 23:2021
255 0:22 1:0.48 2:44 4:1 9:1 12:1197831 16:1 18:1 20:42 21:5 22:9 23:2020
105 0:24 1:0.5 2:23 6:1 9:1 12:1185732 16:1 18:1 20:23 21:18 22:10 23:2021
950 0:22 1:0.35 2:40 4:1 9:1 12:1197831 16:1 19:1 20:42 21:24 22:8 23:2020
700 0:22 1:0.45 2:50 6:1 9:1 12:1197831 16:1 19:1 20:42 21:29 22:10 23:2020
147 0:24 1:0.42 2:32 6:1 9:1 12:1185732 16:1 19:1 20:23 21:17 22:8 23:2021
650 0:22 1:0.3 2:45 9:1 12:1197831 16:1 19:1 20:42 21:3 22:9 23:2020
195 0:22 1:0.45 2:42 9:1 12:1197831 16:1 18:1 20:42 21:24 22:10 23:2020
700 0:22 1:0.45 2:40 6:1 9:1 12:1197831 16:1 19:1 20:42 21:15 22:8 23:2020
325 0:27 1:0.35 2:25.00000000000001 9:1 12:1197831 16:1 18:1 20:3 21:19 22:9 23:2021
203 0:22 1:0.5700000000000001 2:38 6:1 9:1 12:1197831 16:1 18:1 20:42 21:21 22:8 23:2020
169 0:22 1:0.4 2:41 9:1 12:1197831 16:1 18:1 20:42 21:3 22:9 23:2020
119 0:27 1:0.54 2:29 5:1 9:1 12:1197831 16:1 18:1 20:3 21:19 22:9 23:2021
189 0:22 1:0.5900000000000001 2:38 6:1 9:1 12:1197831 16:1 18:1 20:42 21:2 22:9 23:2020
75 0:27 1:0.52 2:14 7:1 9:1 12:1197831 16:1 18:1 20:3 21:20 22:4 23:2021
88 0:27 1:0.54 2:10 7:1 9:1 12:1197831 16:1 18:1 20:3 21:19 22:3 23:2021
181 0:27 1:0.53 2:18 4:1 9:1 12:1197831 16:1 18:1 20:3 21:19 22:3 23:2021
105 0:24 1:0.42 2:25 9:1 12:1185732 16:1 19:1 20:23 21:18 22:10 23:2021
96 0:27 1:0.47 2:11 7:1 9:1 12:1197831 16:1 19:1 20:3 21:20 22:4 23:2021
300 0:27 1:0.35 2:25 3:1 9:1 12:1197831 16:1 18:1 20:3 21:20 22:4 23:2021
150 0:27 1:0.54 2:63 5:1 9:1 12:1197831 16:1 18:1 20:3 21:19 22:7 23:2021
600 0:27 1:0.4 2:65 5:1 9:1 12:1197831 16:1 18:1 20:3 21:19 22:7 23:2021
147 0:24 1:0.45 2:42 3:1 9:1 12:1185732 16:1 18:1 20:23 21:16 22:9 23:2021
750 0:27 1:0.4 2:60 4:1 9:1 12:1197831 16:1 18:1 20:3 21:20 22:8 23:2021
83 0:27 1:0.47 2:27 9:1 12:1197831 16:1 18:1 20:3 21:21 22:10 23:2021
70 0:27 1:0.5 2:18 6:1 9:1 12:1197831 16:1 18:1 20:3 21:21 22:2 23:2021
210 0:27 1:0.54 2:55 4:1 9:1 12:1197831 16:1 18:1 20:3 21:20 22:8 23:2021
350 0:27 1:0.4 2:35 7:1 9:1 12:1197831 16:1 18:1 20:3 21:19 22:5 23:2021
192 0:24 1:0.38 2:42 3:1 9:1 12:1185732 16:1 19:1 20:23 21:16 22:7 23:2021
168 0:24 1:0.48 2:50 3:1 9:1 12:1185732 16:1 18:1 20:23 21:17 22:8 23:2021
261 0:22 1:0.62 2:53 5:1 9:1 12:1197831 16:1 18:1 20:42 21:31 22:10 23:2020
400 0:27 1:0.4 2:40 7:1 9:1 12:1197831 16:1 18:1 20:3 21:21 22:6 23:2021
800 0:22 1:0.35 2:40 7:1 9:1 12:1197831 16:1 19:1 20:42 21:20 22:8 23:2020
115 0:27 1:0.54 2:19 5:1 9:1 12:1197831 16:1 18:1 20:3 21:21 22:2 23:2021
116 0:27 1:0.39 2:37 9:1 12:1197831 16:1 19:1 20:3 21:21 22:6 23:2021
600 0:24 1:0.35 2:55.00000000000001 3:1 9:1 12:1185732 16:1 18:1 20:23 21:16 22:7 23:2021
111 0:27 1:0.39 2:32 9:1 12:1197831 16:1 19:1 20:3 21:19 22:5 23:2021
77 0:27 1:0.47 2:13 6:1 9:1 12:1197831 16:1 19:1 20:3 21:20 22:4 23:2021
111 0:27 1:0.39 2:18 9:1 12:1197831 16:1 19:1 20:3 21:19 22:9 23:2021
975 0:22 1:0.5 2:50 5:1 9:1 12:1197831 16:1 19:1 20:42 21:29 22:8 23:2020
238 0:22 1:0.47 2:39 4:1 9:1 12:1197831 16:1 18:1 20:42 21:18 22:8 23:2020
950 0:22 1:0.5 2:40 5:1 9:1 12:1197831 16:1 19:1 20:42 21:17 22:8 23:2020
950 0:22 1:0.35 2:45 3:1 9:1 12:1197831 16:1 19:1 20:42 21:25 22:8 23:2020
675 0:27 1:0.4 2:40 4:1 9:1 12:1197831 16:1 18:1 20:3 21:21 22:6 23:2021
333 0:22 1:0.42 2:34 3:1 9:1 12:1197831 16:1 19:1 20:42 21:27 22:10 23:2020
60 0:27 1:0.52 2:19 6:1 9:1 12:1197831 16:1 18:1 20:3 21:19 22:3 23:2021
306 0:22 1:0.55 2:41 5:1 9:1 12:1197831 16:1 19:1 20:42 21:31 22:10 23:2020
100 0:24 1:0.55 2:19 6:1 9:1 12:1185732 16:1 18:1 20:23 21:16 22:9 23:2021
240 0:22 1:0.5 2:44 4:1 9:1 12:1197831 16:1 18:1 20:42 21:11 22:9 23:2020
900 0:22 1:0.35 2:50 7:1 9:1 12:1197831 16:1 19:1 20:42 21:7 22:9 23:2020
150 0:27 1:0.5 2:27 4:1 9:1 12:1197831 16:1 18:1 20:3 21:21 22:10 23:2021
147 0:24 1:0.52 2:48 7:1 9:1 12:1185732 16:1 18:1 20:23 21:17 22:8 23:2021
350 0:27 1:0.4 2:25 5:1 9:1 12:1197831 16:1 18:1 20:3 21:19 22:3 23:2021
98 0:24 1:0.54 2:24 7:1 9:1 12:1185732 16:1 18:1 20:23 21:18 22:10 23:2021
158 0:24 1:0.42 2:35 9:1 12:1185732 16:1 19:1 20:23 21:17 22:8 23:2021
775 0:27 1:0.4 2:54.99999999999999 4:1 9:1 12:1197831 16:1 18:1 20:3 21:19 22:7 23:2021
575 0:22 1:0.3 2:45 9:1 12:1197831 16:1 19:1 20:42 21:15 22:9 23:2020
228 0:22 1:0.34 2:35 9:1 12:1197831 16:1 19:1 20:42 21:3 22:9 23:2020
126 0:27 1:0.51 2:43 7:1 9:1 12:1197831 16:1 18:1 20:3 21:19 22:7 23:2021
120 0:27 1:0.44 2:24 5:1 9:1 12:1197831 16:1 19:1 20:3 21:20 22:4 23:2021
112 0:27 1:0.46 2:20 5:1 9:1 12:1197831 16:1 19:1 20:3 21:19 22:3 23:2021
135 0:27 1:0.44 2:40 7:1 9:1 12:1197831 16:1 19:1 20:3 21:20 22:8 23:2021
152 0:27 1:0.48 2:50 3:1 9:1 12:1197831 16:1 18:1 20:3 21:20 22:8 23:2021
287 0:22 1:0.42 2:30 3:1 9:1 12:1197831 16:1 19:1 20:42 21:13 22:8 23:2020
232 0:22 1:0.61 2:39 5:1 9:1 12:1197831 16:1 18:1 20:42 21:11 22:8 23:2020
156 0:24 1:0.45 2:53 3:1 9:1 12:1185732 16:1 18:1 20:23 21:16 22:7 23:2021
255 0:22 1:0.49 2:47 7:1 9:1 12:1197831 16:1 18:1 20:42 21:28 22:10 23:2020
315 0:22 1:0.39 2:24 4:1 9:1 12:1197831 16:1 19:1 20:42 21:12 22:8 23:2020
209 0:24 1:0.53 2:49 5:1 9:1 12:1185732 16:1 19:1 20:23 21:16 22:7 23:2021
78 0:27 1:0.47 2:15 6:1 9:1 12:1197831 16:1 19:1 20:3 21:21 22:2 23:2021
182 0:27 1:0.52 2:48 4:1 9:1 12:1197831 16:1 18:1 20:3 21:19 22:9 23:2021
204 0:27 1:0.45 2:19 4:1 9:1 12:1197831 16:1 19:1 20:3 21:20 22:4 23:2021
179 0:22 1:0.34 2:34 9:1 12:1197831 16:1 19:1 20:42 21:10 22:8 23:2020
116 0:27 1:0.42 2:28 3:1 9:1 12:1197831 16:1 19:1 20:3 21:19 22:5 23:2021
525 0:24 1:0.4 2:50 7:1 9:1 12:1185732 16:1 18:1 20:23 21:17 22:8 23:2021
225 0:22 1:0.65 2:46 5:1 9:1 12:1197831 16:1 18:1 20:42 21:4 22:9 23:2020
950 0:22 1:0.35 2:40 4:1 9:1 12:1197831 16:1 19:1 20:42 21:18 22:8 23:2020
98 0:27 1:0.45 2:20 3:1 9:1 12:1197831 16:1 18:1 20:3 21:19 22:3 23:2021
475 0:24 1:0.4 2:50 6:1 9:1 12:1185732 16:1 18:1 20:23 21:16 22:7 23:2021
234 0:22 1:0.49 2:46 7:1 9:1 12:1197831 16:1 18:1 20:42 21:7 22:9 23:2020
124 0:27 1:0.44 2:29 6:1 9:1 12:1197831 16:1 19:1 20:3 21:21 22:6 23:2021
104 0:27 1:0.42 2:12 6:1 9:1 12:1197831 16:1 19:1 20:3 21:19 22:9 23:2021
113 0:27 1:0.49 2:48 9:1 12:1197831 16:1 18:1 20:3 21:20 22:8 23:2021
106 0:27 1:0.45 2:19 3:1 9:1 12:1197831 16:1 18:1 20:3 21:21 22:10 23:2021
625 0:22 1:0.3 2:45 9:1 12:1197831 16:1 19:1 20:42 21:9 22:9 23:2020
450 0:27 1:0.4 2:45 7:1 9:1 12:1197831 16:1 18:1 20:3 21:19 22:7 23:2021
142 0:24 1:0.5 2:48 7:1 9:1 12:1185732 16:1 18:1 20:23 21:16 22:7 23:2021
500 0:24 1:0.35 2:25.00000000000001 3:1 9:1 12:1185732 16:1 18:1 20:23 21:18 22:10 23:2021
238 0:22 1:0.45 2:37 4:1 9:1 12:1197831 16:1 18:1 20:42 21:24 22:8 23:2020
325 0:27 1:0.35 2:44.99999999999999 9:1 12:1197831 16:1 18:1 20:3 21:19 22:5 23:2021
725 0:24 1:0.4 2:50 4:1 9:1 12:1185732 16:1 18:1 20:23 21:16 22:9 23:2021
375 0:27 1:0.35 2:40 3:1 9:1 12:1197831 16:1 18:1 20:3 21:19 22:5 23:2021
119 0:27 1:0.49 2:55 9:1 12:1197831 16:1 18:1 20:3 21:19 22:7 23:2021
230 0:22 1:0.5 2:36 6:1 9:1 12:1197831 16:1 19:1 20:42 21:23 22:10 23:2020
113 0:27 1:0.37 2:40 9:1 12:1197831 16:1 19:1 20:3 21:20 22:8 23:2021
198 0:27 1:0.46 2:50 5:1 9:1 12:1197831 16:1 19:1 20:3 21:19 22:7 23:2021
150 0:24 1:0.37 2:46 9:1 12:1185732 16:1 19:1 20:23 21:16 22:7 23:2021
91 0:27 1:0.37 2:21 9:1 12:1197831 16:1 19:1 20:3 21:21 22:10 23:2021
600 0:27 1:0.4 2:25 4:1 9:1 12:1197831 16:1 18:1 20:3 21:20 22:4 23:2021
200 0:22 1:0.5 2:37 6:1 9:1 12:1197831 16:1 19:1 20:42 21:8 22:9 23:2020
104 0:27 1:0.5 2:39 6:1 9:1 12:1197831 16:1 18:1 20:3 21:20 22:8 23:2021
400 0:24 1:0.4 2:20.00000000000001 6:1 9:1 12:1185732 16:1 18:1 20:23 21:16 22:9 23:2021
168 0:24 1:0.42 2:37 7:1 9:1 12:1185732 16:1 19:1 20:23 21:16 22:7 23:2021
700 0:22 1:0.45 2:40 6:1 9:1 12:1197831 16:1 19:1 20:42 21:27 22:8 23:2020
925 0:22 1:0.35 2:40 3:1 9:1 12:1197831 16:1 19:1 20:42 21:13 22:8 23:2020
88 0:27 1:0.4 2:24 9:1 12:1197831 16:1 19:1 20:3 21:19 22:3 23:2021
500 0:24 1:0.35 2:60 9:1 12:1185732 16:1 18:1 20:23 21:16 22:7 23:2021
98 0:27 1:0.48 2:54 9:1 12:1197831 16:1 18:1 20:3 21:21 22:6 23:2021
99 0:27 1:0.46 2:16 7:1 9:1 12:1197831 16:1 19:1 20:3 21:21 22:10 23:2021
925 0:22 1:0.35 2:30 4:1 9:1 12:1197831 16:1 19:1 20:42 21:12 22:8 23:2020
250 0:27 1:0.35 2:35.00000000000001 9:1 12:1197831 16:1 18:1 20:3 21:19 22:3 23:2021
450 0:27 1:0.4 2:50 7:1 9:1 12:1197831 16:1 18:1 20:3 21:20 22:8 23:2021
825 0:22 1:0.35 2:50 7:1 9:1 12:1197831 16:1 19:1 20:42 21:22 22:10 23:2020
78 0:27 1:0.5 2:19 7:1 9:1 12:1197831 16:1 18:1 20:3 21:21 22:10 23:2021
145 0:27 1:0.42 2:16 5:1 9:1 12:1197831 16:1 19:1 20:3 21:21 22:2 23:2021
233 0:27 1:0.45 2:43 4:1 9:1 12:1197831 16:1 19:1 20:3 21:20 22:8 23:2021
850 0:22 1:0.35 2:45 4:1 9:1 12:1197831 16:1 19:1 20:42 21:5 22:9 23:2020
350 0:24 1:0.4 2:25.00000000000001 6:1 9:1 12:1185732 16:1 18:1 20:23 21:18 22:10 23:2021
217 0:22 1:0.36 2:33 9:1 12:1197831 16:1 19:1 20:42 21:28 22:8 23:2020
675 0:24 1:0.5 2:65 5:1 9:1 12:1185732 16:1 18:1 20:23 21:16 22:7 23:2021
196 0:22 1:0.4 2:41 9:1 12:1197831 16:1 18:1 20:42 21:28 22:8 23:2020
255 0:22 1:0.37 2:39 7:1 9:1 12:1197831 16:1 19:1 20:42 21:13 22:9 23:2020
650 0:22 1:0.45 2:40 6:1 9:1 12:1197831 16:1 19:1 20:42 21:2 22:9 23:2020
259 0:22 1:0.46 2:38 3:1 9:1 12:1197831 16:1 18:1 20:42 21:13 22:8 23:2020
900 0:22 1:0.35 2:45 3:1 9:1 12:1197831 16:1 19:1 20:42 21:21 22:10 23:2020
800 0:22 1:0.5 2:40 5:1 9:1 12:1197831 16:1 19:1 20:42 21:11 22:8 23:2020
232 0:22 1:0.49 2:37 7:1 9:1 12:1197831 16:1 18:1 20:42 21:20 22:8 23:2020
174 0:27 1:0.54 2:23 4:1 9:1 12:1197831 16:1 18:1 20:3 21:20 22:4 23:2021
263 0:22 1:0.48 2:26 6:1 9:1 12:1197831 16:1 19:1 20:42 21:21 22:8 23:2020
295 0:22 1:0.5700000000000001 2:32 5:1 9:1 12:1197831 16:1 19:1 20:42 21:17 22:8 23:2020
525 0:27 1:0.35 2:50 3:1 9:1 12:1197831 16:1 18:1 20:3 21:19 22:7 23:2021
143 0:27 1:0.52 2:50 5:1 9:1 12:1197831 16:1 18:1 20:3 21:20 22:8 23:2021
375 0:24 1:0.4 2:25.00000000000001 7:1 9:1 12:1185732 16:1 18:1 20:23 21:18 22:10 23:2021
145 0:24 1:0.47 2:15 7:1 9:1 12:1185732 16:1 19:1 20:23 21:16 22:9 23:2021
184 0:22 1:0.37 2:35 9:1 12:1197831 16:1 19:1 20:42 21:15 22:9 23:2020
275 0:27 1:0.35 2:30.00000000000001 9:1 12:1197831 16:1 18:1 20:3 21:21 22:10 23:2021
238 0:22 1:0.46 2:42 3:1 9:1 12:1197831 16:1 18:1 20:42 21:25 22:8 23:2020
525 0:22 1:0.3 2:45 9:1 12:1197831 16:1 19:1 20:42 21:10 22:8 23:2020
221 0:27 1:0.43 2:35 4:1 9:1 12:1197831 16:1 19:1 20:3 21:19 22:9 23:2021
221 0:22 1:0.32 2:29 9:1 12:1197831 16:1 19:1 20:42 21:22 22:8 23:2020
203 0:24 1:0.54 2:47 4:1 9:1 12:1185732 16:1 18:1 20:23 21:16 22:9 23:2021
208 0:22 1:0.36 2:30 9:1 12:1197831 16:1 19:1 20:42 21:30 22:10 23:2020
234 0:22 1:0.49 2:43 4:1 9:1 12:1197831 16:1 18:1 20:42 21:20 22:10 23:2020
900 0:22 1:0.5 2:55.00000000000001 5:1 9:1 12:1197831 16:1 19:1 20:42 21:31 22:10 23:2020
300 0:27 1:0.4 2:20.00000000000001 7:1 9:1 12:1197831 16:1 18:1 20:3 21:21 22:10 23:2021
285 0:22 1:0.48 2:44 3:1 9:1 12:1197831 16:1 18:1 20:42 21:27 22:10 23:2020
108 0:24 1:0.48 2:29 9:1 12:1185732 16:1 18:1 20:23 21:16 22:9 23:2021
268 0:22 1:0.49 2:37 4:1 9:1 12:1197831 16:1 18:1 20:42 21:30 22:8 23:2020
150 0:24 1:0.48 2:59 9:1 12:1185732 16:1 18:1 20:23 21:16 22:7 23:2021
225 0:22 1:0.48 2:33 7:1 9:1 12:1197831 16:1 18:1 20:42 21:14 22:8 23:2020
272 0:22 1:0.55 2:27 5:1 9:1 12:1197831 16:1 19:1 20:42 21:11 22:8 23:2020
120 0:24 1:0.45 2:16 6:1 9:1 12:1185732 16:1 19:1 20:23 21:16 22:9 23:2021
350 0:27 1:0.4 2:10 7:1 9:1 12:1197831 16:1 18:1 20:3 21:19 22:3 23:2021
147 0:22 1:0.42 2:42 9:1 12:1197831 16:1 18:1 20:42 21:10 22:8 23:2020
143 0:24 1:0.43 2:33 6:1 9:1 12:1185732 16:1 19:1 20:23 21:16 22:7 23:2021
425 0:27 1:0.4 2:44.99999999999999 5:1 9:1 12:1197831 16:1 18:1 20:3 21:19 22:5 23:2021
293 0:22 1:0.63 2:47 5:1 9:1 12:1197831 16:1 18:1 20:42 21:29 22:8 23:2020
181 0:22 1:0.55 2:47 6:1 9:1 12:1197831 16:1 18:1 20:42 21:8 22:9 23:2020
123 0:27 1:0.47 2:11 7:1 9:1 12:1197831 16:1 19:1 20:3 21:19 22:9 23:2021
550 0:27 1:0.4 2:55.00000000000001 5:1 9:1 12:1197831 16:1 18:1 20:3 21:20 22:8 23:2021
204 0:22 1:0.47 2:36 6:1 9:1 12:1197831 16:1 19:1 20:42 21:14 22:9 23:2020
750 0:22 1:0.5 2:55.00000000000001 5:1 9:1 12:1197831 16:1 19:1 20:42 21:16 22:9 23:2020
850 0:22 1:0.5 2:55.00000000000001 5:1 9:1 12:1197831 16:1 19:1 20:42 21:25 22:10 23:2020
168 0:22 1:0.4 2:42 9:1 12:1197831 16:1 18:1 20:42 21:16 22:8 23:2020
81 0:27 1:0.49 2:24 3:1 9:1 12:1197831 16:1 18:1 20:3 21:20 22:4 23:2021
305 0:22 1:0.37 2:27 4:1 9:1 12:1197831 16:1 19:1 20:42 21:30 22:8 23:2020
400 0:24 1:0.35 2:30 9:1 12:1185732 16:1 18:1 20:23 21:16 22:9 23:2021
203 0:27 1:0.5 2:36 4:1 9:1 12:1197831 16:1 18:1 20:3 21:21 22:6 23:2021
