275 0:2 1:0.3 2:55.00000000000001 5:1 11:1 12:1185732 19:1 20:1 21:20 22:3 23:2021
200 0:2 1:0.25 2:65 11:1 12:1185732 19:1 20:1 21:20 22:9 23:2021
300 0:2 1:0.25 2:55.00000000000001 7:1 11:1 12:1185732 19:1 20:1 21:20 22:5 23:2021
123 0:2 1:0.48 2:68 4:1 11:1 12:1185732 18:1 20:1 21:21 22:11 23:2021
46 0:2 1:0.4 2:59 7:1 11:1 12:1185732 18:1 20:1 21:22 22:10 23:2021
225 0:2 1:0.35 2:55.00000000000001 3:1 11:1 12:1185732 19:1 20:1 21:22 22:2 23:2021
650 0:2 1:0.35 2:65 4:1 11:1 12:1185732 19:1 20:1 21:21 22:8 23:2021
225 0:2 1:0.35 2:55.00000000000001 3:1 11:1 12:1185732 19:1 20:1 21:21 22:4 23:2021
150 0:2 1:0.25 2:49.99999999999999 6:1 11:1 12:1185732 19:1 20:1 21:21 22:4 23:2021
91 0:2 1:0.39 2:61 11:1 12:1185732 18:1 20:1 21:20 22:7 23:2021
113 0:2 1:0.47 2:68 4:1 11:1 12:1185732 18:1 20:1 21:22 22:10 23:2021
275 0:2 1:0.35 2:60.00000000000001 3:1 11:1 12:1185732 19:1 20:1 21:20 22:5 23:2021
36 0:2 1:0.38 2:49 6:1 11:1 12:1185732 18:1 20:1 21:20 22:3 23:2021
150 0:2 1:0.25 2:75.00000000000001 11:1 12:1185732 19:1 20:1 21:22 22:10 23:2021
83 0:2 1:0.4 2:73 5:1 11:1 12:1185732 18:1 20:1 21:22 22:10 23:2021
163 0:2 1:0.4500000000000001 2:59 4:1 11:1 12:1185732 18:1 20:1 21:21 22:8 23:2021
83 0:2 1:0.35 2:69 11:1 12:1185732 18:1 20:1 21:21 22:11 23:2021
77 0:2 1:0.48 2:60 3:1 11:1 12:1185732 18:1 20:1 21:22 22:10 23:2021
225 0:2 1:0.25 2:55.00000000000001 7:1 11:1 12:1185732 19:1 20:1 21:20 22:9 23:2021
125 0:2 1:0.25 2:49.99999999999999 6:1 11:1 12:1185732 19:1 20:1 21:20 22:3 23:2021
150 0:2 1:0.25 2:65.00000000000001 6:1 11:1 12:1185732 19:1 20:1 21:22 22:10 23:2021
150 0:2 1:0.25 2:60.00000000000001 11:1 12:1185732 19:1 20:1 21:21 22:4 23:2021
425 0:2 1:0.35 2:75.00000000000001 4:1 11:1 12:1185732 19:1 20:1 21:21 22:11 23:2021
131 0:2 1:0.46 2:54 4:1 11:1 12:1185732 18:1 20:1 21:21 22:4 23:2021
300 0:2 1:0.3 2:70 5:1 11:1 12:1185732 19:1 20:1 21:20 22:9 23:2021
84 0:2 1:0.44 2:49 5:1 11:1 12:1185732 18:1 20:1 21:21 22:4 23:2021
500 0:2 1:0.3 2:70 5:1 11:1 12:1185732 19:1 20:1 21:20 22:7 23:2021
42 0:2 1:0.36 2:59 6:1 11:1 12:1185732 18:1 20:1 21:22 22:10 23:2021
175 0:2 1:0.25 2:65.00000000000001 11:1 12:1185732 19:1 20:1 21:20 22:3 23:2021
300 0:2 1:0.3 2:50 5:1 11:1 12:1185732 19:1 20:1 21:21 22:4 23:2021
56 0:2 1:0.39 2:50 6:1 11:1 12:1185732 18:1 20:1 21:20 22:9 23:2021
84 0:2 1:0.36 2:60 11:1 12:1185732 18:1 20:1 21:22 22:6 23:2021
225 0:2 1:0.25 2:65 11:1 12:1185732 19:1 20:1 21:21 22:8 23:2021
350 0:2 1:0.3 2:55.00000000000001 5:1 11:1 12:1185732 19:1 20:1 21:22 22:2 23:2021
650 0:2 1:0.35 2:65 4:1 11:1 12:1185732 19:1 20:1 21:22 22:6 23:2021
81 0:2 1:0.46 2:59 3:1 11:1 12:1185732 18:1 20:1 21:21 22:11 23:2021
250 0:2 1:0.25 2:65.00000000000001 11:1 12:1185732 19:1 20:1 21:22 22:2 23:2021
100 0:2 1:0.41 2:67 5:1 11:1 12:1185732 18:1 20:1 21:20 22:5 23:2021
68 0:2 1:0.4 2:53 6:1 11:1 12:1185732 18:1 20:1 21:21 22:8 23:2021
84 0:2 1:0.41 2:52 5:1 11:1 12:1185732 18:1 20:1 21:24 22:1 23:2021
126 0:2 1:0.42 2:67 5:1 11:1 12:1185732 18:1 20:1 21:22 22:6 23:2021
275 0:2 1:0.3 2:80 5:1 11:1 12:1185732 19:1 20:1 21:22 22:10 23:2021
63 0:2 1:0.38 2:51 6:1 11:1 12:1185732 18:1 20:1 21:20 22:5 23:2021
72 0:2 1:0.4500000000000001 2:56 3:1 11:1 12:1185732 18:1 20:1 21:20 22:5 23:2021
59 0:2 1:0.38 2:50 7:1 11:1 12:1185732 18:1 20:1 21:20 22:9 23:2021
300 0:2 1:0.25 2:55.00000000000001 6:1 11:1 12:1185732 19:1 20:1 21:22 22:6 23:2021
175 0:2 1:0.25 2:49.99999999999999 6:1 11:1 12:1185732 19:1 20:1 21:22 22:2 23:2021
173 0:2 1:0.47 2:51 4:1 11:1 12:1185732 18:1 20:1 21:22 22:2 23:2021
300 0:2 1:0.25 2:65 11:1 12:1185732 19:1 20:1 21:22 22:6 23:2021
102 0:2 1:0.36 2:54 7:1 11:1 12:1185732 18:1 20:1 21:21 22:8 23:2021
325 0:2 1:0.35 2:60.00000000000001 3:1 11:1 12:1185732 19:1 20:1 21:20 22:9 23:2021
41 0:2 1:0.37 2:56 11:1 12:1185732 18:1 20:1 21:21 22:4 23:2021
112 0:2 1:0.47 2:60 3:1 11:1 12:1185732 18:1 20:1 21:20 22:12 23:2021
69 0:2 1:0.37 2:41 7:1 11:1 12:1185732 18:1 20:1 21:20 22:3 23:2021
350 0:2 1:0.25 2:55.00000000000001 7:1 11:1 12:1185732 19:1 20:1 21:21 22:8 23:2021
130 0:2 1:0.45 2:67 5:1 11:1 12:1185732 18:1 20:1 21:20 22:7 23:2021
84 0:2 1:0.41 2:64 5:1 11:1 12:1185732 18:1 20:1 21:20 22:9 23:2021
69 0:2 1:0.38 2:62 11:1 12:1185732 18:1 20:1 21:20 22:5 23:2021
44 0:2 1:0.37 2:47 6:1 11:1 12:1185732 18:1 20:1 21:21 22:4 23:2021
375 0:2 1:0.3 2:80 5:1 11:1 12:1185732 19:1 20:1 21:21 22:11 23:2021
275 0:2 1:0.25 2:75.00000000000001 11:1 12:1185732 19:1 20:1 21:21 22:11 23:2021
675 0:2 1:0.35 2:65 4:1 11:1 12:1185732 19:1 20:1 21:20 22:7 23:2021
250 0:2 1:0.25 2:55.00000000000001 6:1 11:1 12:1185732 19:1 20:1 21:20 22:5 23:2021
102 0:2 1:0.44 2:52 5:1 11:1 12:1185732 18:1 20:1 21:22 22:2 23:2021
75 0:2 1:0.38 2:51 6:1 11:1 12:1185732 18:1 20:1 21:20 22:7 23:2021
91 0:2 1:0.48 2:55 3:1 11:1 12:1185732 18:1 20:1 21:20 22:9 23:2021
425 0:2 1:0.35 2:60.00000000000001 3:1 11:1 12:1185732 19:1 20:1 21:21 22:8 23:2021
200 0:2 1:0.25 2:55.00000000000001 6:1 11:1 12:1185732 19:1 20:1 21:20 22:9 23:2021
75 0:2 1:0.38 2:60 11:1 12:1185732 18:1 20:1 21:22 22:2 23:2021
65 0:2 1:0.38 2:62 11:1 12:1185732 18:1 20:1 21:21 22:8 23:2021
525 0:2 1:0.35 2:65 4:1 11:1 12:1185732 19:1 20:1 21:20 22:9 23:2021
90 0:2 1:0.38 2:62 6:1 11:1 12:1185732 18:1 20:1 21:21 22:11 23:2021
275 0:2 1:0.25 2:45 7:1 11:1 12:1185732 19:1 20:1 21:22 22:2 23:2021
93 0:2 1:0.39 2:59 7:1 11:1 12:1185732 18:1 20:1 21:21 22:11 23:2021
425 0:2 1:0.35 2:60.00000000000001 3:1 11:1 12:1185732 19:1 20:1 21:20 22:7 23:2021
174 0:2 1:0.47 2:69 4:1 11:1 12:1185732 18:1 20:1 21:20 22:12 23:2021
300 0:2 1:0.3 2:55.00000000000001 5:1 11:1 12:1185732 19:1 20:1 21:24 22:1 23:2021
400 0:2 1:0.3 2:70 5:1 11:1 12:1185732 19:1 20:1 21:21 22:8 23:2021
65 0:2 1:0.48 2:53 3:1 11:1 12:1185732 18:1 20:1 21:22 22:2 23:2021
106 0:2 1:0.4500000000000001 2:56 3:1 11:1 12:1185732 18:1 20:1 21:21 22:8 23:2021
77 0:2 1:0.37 2:43 7:1 11:1 12:1185732 18:1 20:1 21:22 22:2 23:2021
400 0:2 1:0.3 2:70 5:1 11:1 12:1185732 19:1 20:1 21:20 22:5 23:2021
600 0:2 1:0.35 2:75.00000000000001 4:1 11:1 12:1185732 19:1 20:1 21:20 22:12 23:2021
104 0:2 1:0.42 2:67 5:1 11:1 12:1185732 18:1 20:1 21:21 22:8 23:2021
275 0:2 1:0.25 2:45 7:1 11:1 12:1185732 19:1 20:1 21:20 22:3 23:2021
46 0:2 1:0.39 2:49 6:1 11:1 12:1185732 18:1 20:1 21:22 22:2 23:2021
44 0:2 1:0.35 2:71 11:1 12:1185732 18:1 20:1 21:22 22:10 23:2021
65 0:2 1:0.5 2:52 3:1 11:1 12:1185732 18:1 20:1 21:20 22:3 23:2021
545 0:2 1:0.35 2:55.00000000000001 4:1 11:1 12:1185732 19:1 20:1 21:20 22:3 23:2021
112 0:2 1:0.5 2:55 3:1 11:1 12:1185732 18:1 20:1 21:22 22:6 23:2021
575 0:2 1:0.35 2:55.00000000000001 4:1 11:1 12:1185732 19:1 20:1 21:22 22:2 23:2021
101 0:2 1:0.42 2:74 5:1 11:1 12:1185732 18:1 20:1 21:21 22:11 23:2021
325 0:2 1:0.25 2:65 11:1 12:1185732 19:1 20:1 21:20 22:7 23:2021
