575 0:44 1:0.3 2:85.00000000000001 5:1 10:1 12:1128299 15:1 20:45 21:23 22:12 23:2021
184 0:3 1:0.41 2:41 7:1 10:1 12:1128299 15:1 19:1 20:9 21:12 22:7 23:2021
160 0:3 1:0.54 2:47 4:1 10:1 12:1128299 15:1 18:1 20:9 21:14 22:5 23:2021
133 0:44 1:0.51 2:72 10:1 12:1128299 15:1 18:1 20:45 21:23 22:12 23:2021
160 0:39 1:0.41 2:46 4:1 10:1 12:1128299 15:1 18:1 20:8 21:16 22:3 23:2021
156 0:11 1:0.46 2:38 10:1 12:1185732 15:1 18:1 20:32 21:2 22:9 23:2021
100 0:39 1:0.38 2:58 3:1 10:1 12:1128299 15:1 18:1 20:8 21:16 22:3 23:2021
144 0:11 1:0.55 2:20 7:1 10:1 12:1185732 15:1 18:1 20:32 21:3 22:4 23:2021
550 0:44 1:0.35 2:70.00000000000001 7:1 10:1 12:1128299 15:1 20:45 21:23 22:12 23:2021
149 0:11 1:0.47 2:42 10:1 12:1185732 15:1 18:1 20:32 21:4 22:10 23:2021
165 0:44 1:0.4 2:53 7:1 10:1 12:1128299 15:1 19:1 20:45 21:23 22:12 23:2021
179 0:3 1:0.43 2:37 4:1 10:1 12:1128299 15:1 19:1 20:9 21:13 22:4 23:2021
176 0:44 1:0.39 2:51 6:1 10:1 12:1128299 15:1 19:1 20:45 21:23 22:12 23:2021
775 0:10 1:0.3 2:60.00000000000001 6:1 10:1 12:1185732 15:1 18:1 20:39 21:5 22:12 23:2021
173 0:3 1:0.54 2:58 3:1 10:1 12:1128299 15:1 18:1 20:9 21:13 22:11 23:2021
525 0:3 1:0.4 2:40 4:1 10:1 12:1128299 15:1 18:1 20:9 21:12 22:3 23:2021
98 0:3 1:0.36 2:37 5:1 10:1 12:1128299 15:1 18:1 20:9 21:13 22:2 23:2021
700 0:31 1:0.3 2:50.00000000000001 6:1 10:1 12:1185732 15:1 20:8 21:2 22:10 23:2020
550 0:44 1:0.55 2:35 5:1 10:1 12:1185732 15:1 20:45 21:19 22:1 23:2021
675 0:10 1:0.4 2:25.00000000000001 7:1 10:1 12:1185732 15:1 18:1 20:39 21:4 22:2 23:2021
920 0:11 1:0.4 2:30 4:1 10:1 12:1185732 15:1 18:1 20:32 21:2 22:3 23:2021
157 0:44 1:0.42 2:59 10:1 12:1128299 15:1 19:1 20:45 21:23 22:12 23:2021
163 0:11 1:0.51 2:55 6:1 10:1 12:1185732 15:1 18:1 20:32 21:3 22:11 23:2021
650 0:11 1:0.35 2:55.00000000000001 10:1 12:1185732 15:1 18:1 20:32 21:3 22:8 23:2021
210 0:31 1:0.43 2:42 6:1 10:1 12:1185732 15:1 18:1 20:8 21:26 22:9 23:2020
525 0:3 1:0.35 2:55.00000000000001 7:1 10:1 12:1128299 15:1 18:1 20:9 21:13 22:6 23:2021
163 0:3 1:0.44 2:41 3:1 10:1 12:1128299 15:1 19:1 20:9 21:13 22:6 23:2021
149 0:39 1:0.32 2:47 7:1 10:1 12:1128299 15:1 19:1 20:8 21:16 22:3 23:2021
1000 0:31 1:0.45 2:60.00000000000001 4:1 10:1 12:1185732 15:1 20:8 21:29 22:9 23:2020
725 0:10 1:0.35 2:35 3:1 10:1 12:1185732 15:1 18:1 20:39 21:6 22:1 23:2021
675 0:3 1:0.4 2:55.00000000000001 4:1 10:1 12:1128299 15:1 18:1 20:9 21:13 22:8 23:2021
176 0:11 1:0.48 2:53 10:1 12:1185732 15:1 18:1 20:32 21:3 22:8 23:2021
138 0:3 1:0.48 2:54 10:1 12:1128299 15:1 18:1 20:9 21:12 22:7 23:2021
263 0:11 1:0.63 2:64 5:1 10:1 12:1185732 15:1 18:1 20:32 21:2 22:7 23:2021
150 0:11 1:0.49 2:46 10:1 12:1185732 15:1 18:1 20:32 21:2 22:5 23:2021
223 0:31 1:0.65 2:59 5:1 10:1 12:1185732 15:1 18:1 20:8 21:4 22:10 23:2020
400 0:39 1:0.45 2:50 5:1 10:1 12:1128299 15:1 19:1 20:8 21:17 22:2 23:2021
200 0:3 1:0.42 2:44 3:1 10:1 12:1128299 15:1 19:1 20:9 21:13 22:8 23:2021
203 0:44 1:0.61 2:34 4:1 10:1 12:1185732 15:1 18:1 20:45 21:19 22:1 23:2021
231 0:10 1:0.5 2:33 4:1 10:1 12:1185732 15:1 18:1 20:39 21:6 22:1 23:2021
131 0:39 1:0.47 2:48 5:1 10:1 12:1128299 15:1 19:1 20:8 21:16 22:3 23:2021
203 0:11 1:0.51 2:52 6:1 10:1 12:1185732 15:1 18:1 20:32 21:2 22:7 23:2021
875 0:10 1:0.5 2:75 5:1 10:1 12:1185732 15:1 18:1 20:39 21:5 22:12 23:2021
800 0:11 1:0.35 2:60.00000000000001 3:1 10:1 12:1185732 15:1 18:1 20:32 21:3 22:8 23:2021
875 0:11 1:0.4 2:30 4:1 10:1 12:1185732 15:1 18:1 20:32 21:3 22:4 23:2021
182 0:11 1:0.47 2:42 3:1 10:1 12:1185732 15:1 18:1 20:32 21:4 22:6 23:2021
119 0:3 1:0.38 2:47 10:1 12:1128299 15:1 19:1 20:9 21:13 22:11 23:2021
126 0:3 1:0.48 2:60 10:1 12:1128299 15:1 18:1 20:9 21:13 22:8 23:2021
156 0:3 1:0.55 2:47 3:1 10:1 12:1128299 15:1 18:1 20:9 21:14 22:9 23:2021
100 0:3 1:0.48 2:54 10:1 12:1128299 15:1 18:1 20:9 21:14 22:9 23:2021
108 0:3 1:0.52 2:52 3:1 10:1 12:1128299 15:1 18:1 20:9 21:14 22:5 23:2021
200 0:11 1:0.45 2:58 3:1 10:1 12:1185732 15:1 18:1 20:32 21:3 22:8 23:2021
209 0:3 1:0.46 2:39 4:1 10:1 12:1128299 15:1 19:1 20:9 21:13 22:8 23:2021
550 0:3 1:0.4 2:50 4:1 10:1 12:1128299 15:1 18:1 20:9 21:14 22:5 23:2021
150 0:11 1:0.45 2:29 3:1 10:1 12:1185732 15:1 18:1 20:32 21:2 22:3 23:2021
263 0:10 1:0.5 2:34 4:1 10:1 12:1185732 15:1 18:1 20:39 21:4 22:2 23:2021
600 0:3 1:0.4 2:45.00000000000001 4:1 10:1 12:1128299 15:1 18:1 20:9 21:14 22:9 23:2021
700 0:11 1:0.5 2:45.00000000000001 5:1 10:1 12:1185732 15:1 18:1 20:32 21:2 22:9 23:2021
128 0:3 1:0.51 2:46 6:1 10:1 12:1128299 15:1 18:1 20:9 21:12 22:7 23:2021
173 0:3 1:0.46 2:34 4:1 10:1 12:1128299 15:1 19:1 20:9 21:13 22:10 23:2021
137 0:3 1:0.5 2:50 7:1 10:1 12:1128299 15:1 18:1 20:9 21:12 22:7 23:2021
625 0:11 1:0.4 2:40 7:1 10:1 12:1185732 15:1 18:1 20:32 21:2 22:5 23:2021
725 0:10 1:0.5 2:35 5:1 10:1 12:1185732 15:1 18:1 20:39 21:6 22:1 23:2021
450 0:3 1:0.35 2:45.00000000000001 7:1 10:1 12:1128299 15:1 18:1 20:9 21:14 22:9 23:2021
425 0:3 1:0.35 2:55.00000000000001 7:1 10:1 12:1128299 15:1 18:1 20:9 21:14 22:5 23:2021
800 0:44 1:0.5 2:35 4:1 10:1 12:1185732 15:1 20:45 21:17 22:2 23:2021
525 0:3 1:0.4 2:55.00000000000001 4:1 10:1 12:1128299 15:1 18:1 20:9 21:13 22:11 23:2021
575 0:11 1:0.35 2:30 3:1 10:1 12:1185732 15:1 18:1 20:32 21:3 22:4 23:2021
475 0:3 1:0.25 2:70 5:1 10:1 12:1128299 15:1 18:1 20:9 21:13 22:11 23:2021
169 0:11 1:0.62 2:27 5:1 10:1 12:1185732 15:1 18:1 20:32 21:2 22:3 23:2021
173 0:3 1:0.46 2:37 3:1 10:1 12:1128299 15:1 19:1 20:9 21:12 22:7 23:2021
170 0:44 1:0.36 2:17 7:1 10:1 12:1185732 15:1 19:1 20:45 21:17 22:2 23:2021
169 0:11 1:0.54 2:47 7:1 10:1 12:1185732 15:1 18:1 20:32 21:4 22:6 23:2021
162 0:3 1:0.38 2:39 10:1 12:1128299 15:1 19:1 20:9 21:12 22:7 23:2021
167 0:11 1:0.54 2:38 7:1 10:1 12:1185732 15:1 18:1 20:32 21:3 22:11 23:2021
124 0:39 1:0.31 2:44 3:1 10:1 12:1128299 15:1 19:1 20:8 21:16 22:3 23:2021
825 0:11 1:0.5 2:60.00000000000001 5:1 10:1 12:1185732 15:1 18:1 20:32 21:3 22:8 23:2021
180 0:3 1:0.54 2:43 4:1 10:1 12:1128299 15:1 18:1 20:9 21:14 22:9 23:2021
650 0:11 1:0.4 2:50 6:1 10:1 12:1185732 15:1 18:1 20:32 21:4 22:6 23:2021
245 0:11 1:0.54 2:42 4:1 10:1 12:1185732 15:1 18:1 20:32 21:4 22:10 23:2021
825 0:31 1:0.5 2:60.00000000000001 5:1 10:1 12:1185732 15:1 20:8 21:28 22:9 23:2020
120 0:3 1:0.51 2:49 6:1 10:1 12:1128299 15:1 18:1 20:9 21:13 22:6 23:2021
300 0:3 1:0.35 2:55.00000000000001 10:1 12:1128299 15:1 18:1 20:9 21:13 22:10 23:2021
400 0:3 1:0.4 2:55.00000000000001 3:1 10:1 12:1128299 15:1 18:1 20:9 21:14 22:5 23:2021
224 0:11 1:0.5 2:58 3:1 10:1 12:1185732 15:1 18:1 20:32 21:2 22:7 23:2021
182 0:3 1:0.51 2:53 4:1 10:1 12:1128299 15:1 18:1 20:9 21:13 22:8 23:2021
176 0:44 1:0.32 2:18 7:1 10:1 12:1185732 15:1 19:1 20:45 21:19 22:1 23:2021
215 0:10 1:0.35 2:56 7:1 10:1 12:1185732 15:1 18:1 20:39 21:5 22:12 23:2021
575 0:11 1:0.4 2:20 7:1 10:1 12:1185732 15:1 18:1 20:32 21:3 22:4 23:2021
400 0:3 1:0.35 2:55.00000000000001 10:1 12:1128299 15:1 18:1 20:9 21:14 22:9 23:2021
203 0:11 1:0.61 2:41 5:1 10:1 12:1185732 15:1 18:1 20:32 21:2 22:9 23:2021
91 0:3 1:0.54 2:47 6:1 10:1 12:1128299 15:1 18:1 20:9 21:14 22:5 23:2021
96 0:3 1:0.45 2:40 6:1 10:1 12:1128299 15:1 19:1 20:9 21:13 22:4 23:2021
123 0:3 1:0.38 2:32 7:1 10:1 12:1128299 15:1 19:1 20:9 21:13 22:10 23:2021
450 0:44 1:0.4 2:45.00000000000001 10:1 12:1185732 15:1 20:45 21:19 22:1 23:2021
450 0:44 1:0.4 2:35 3:1 10:1 12:1185732 15:1 20:45 21:17 22:2 23:2021
675 0:11 1:0.5 2:35 5:1 10:1 12:1185732 15:1 18:1 20:32 21:3 22:4 23:2021
175 0:39 1:0.2 2:65 10:1 12:1128299 15:1 19:1 20:8 21:16 22:3 23:2021
825 0:31 1:0.35 2:50.00000000000001 3:1 10:1 12:1185732 15:1 20:8 21:30 22:9 23:2020
150 0:44 1:0.43 2:82 5:1 10:1 12:1128299 15:1 18:1 20:45 21:23 22:12 23:2021
525 0:3 1:0.35 2:55.00000000000001 7:1 10:1 12:1128299 15:1 18:1 20:9 21:12 22:7 23:2021
115 0:3 1:0.47 2:54 7:1 10:1 12:1128299 15:1 18:1 20:9 21:13 22:11 23:2021
60 0:3 1:0.39 2:34 10:1 12:1128299 15:1 19:1 20:9 21:13 22:2 23:2021
115 0:39 1:0.43 2:59 7:1 10:1 12:1128299 15:1 18:1 20:8 21:16 22:3 23:2021
173 0:10 1:0.55 2:29 6:1 10:1 12:1185732 15:1 18:1 20:39 21:6 22:1 23:2021
400 0:3 1:0.4 2:50 6:1 10:1 12:1128299 15:1 18:1 20:9 21:13 22:6 23:2021
200 0:44 1:0.63 2:34 4:1 10:1 12:1185732 15:1 18:1 20:45 21:17 22:2 23:2021
650 0:11 1:0.35 2:35.00000000000001 3:1 10:1 12:1185732 15:1 18:1 20:32 21:3 22:11 23:2021
600 0:3 1:0.4 2:50.00000000000001 3:1 10:1 12:1128299 15:1 18:1 20:9 21:14 22:9 23:2021
945 0:11 1:0.4 2:45 4:1 10:1 12:1185732 15:1 18:1 20:32 21:2 22:5 23:2021
575 0:3 1:0.4 2:60.00000000000001 3:1 10:1 12:1128299 15:1 18:1 20:9 21:13 22:11 23:2021
45 0:3 1:0.41 2:41 10:1 12:1128299 15:1 19:1 20:9 21:12 22:3 23:2021
575 0:3 1:0.25 2:70 5:1 10:1 12:1128299 15:1 18:1 20:9 21:13 22:6 23:2021
550 0:11 1:0.35 2:45.00000000000001 10:1 12:1185732 15:1 18:1 20:32 21:4 22:10 23:2021
775 0:11 1:0.35 2:60.00000000000001 3:1 10:1 12:1185732 15:1 18:1 20:32 21:2 22:12 23:2021
51 0:3 1:0.48 2:41 10:1 12:1128299 15:1 18:1 20:9 21:13 22:2 23:2021
203 0:31 1:0.39 2:47 7:1 10:1 12:1185732 15:1 18:1 20:8 21:1 22:10 23:2020
650 0:11 1:0.35 2:65 10:1 12:1185732 15:1 18:1 20:32 21:4 22:6 23:2021
101 0:3 1:0.53 2:46 3:1 10:1 12:1128299 15:1 18:1 20:9 21:12 22:3 23:2021
775 0:31 1:0.3 2:50.00000000000001 6:1 10:1 12:1185732 15:1 20:8 21:8 22:10 23:2020
325 0:3 1:0.4 2:50 6:1 10:1 12:1128299 15:1 18:1 20:9 21:14 22:5 23:2021
825 0:11 1:0.4 2:45.00000000000001 4:1 10:1 12:1185732 15:1 18:1 20:32 21:3 22:11 23:2021
145 0:3 1:0.4 2:39 7:1 10:1 12:1128299 15:1 19:1 20:9 21:13 22:11 23:2021
223 0:3 1:0.47 2:39 3:1 10:1 12:1128299 15:1 19:1 20:9 21:12 22:12 23:2021
225 0:31 1:0.37 2:41 7:1 10:1 12:1185732 15:1 18:1 20:8 21:25 22:9 23:2020
154 0:44 1:0.48 2:64 7:1 10:1 12:1128299 15:1 18:1 20:45 21:23 22:12 23:2021
131 0:3 1:0.29 2:28 5:1 10:1 12:1128299 15:1 19:1 20:9 21:13 22:2 23:2021
181 0:10 1:0.5 2:34 3:1 10:1 12:1185732 15:1 18:1 20:39 21:6 22:1 23:2021
196 0:3 1:0.5 2:47 4:1 10:1 12:1128299 15:1 18:1 20:9 21:12 22:7 23:2021
56 0:3 1:0.42 2:38 10:1 12:1128299 15:1 19:1 20:9 21:13 22:4 23:2021
143 0:3 1:0.38 2:67 5:1 10:1 12:1128299 15:1 18:1 20:9 21:12 22:7 23:2021
233 0:44 1:0.52 2:23 4:1 10:1 12:1185732 15:1 19:1 20:45 21:19 22:1 23:2021
256 0:44 1:0.55 2:26 4:1 10:1 12:1185732 15:1 19:1 20:45 21:17 22:2 23:2021
145 0:3 1:0.39 2:40 7:1 10:1 12:1128299 15:1 19:1 20:9 21:14 22:5 23:2021
132 0:3 1:0.37 2:36 10:1 12:1128299 15:1 19:1 20:9 21:14 22:9 23:2021
700 0:31 1:0.35 2:60.00000000000001 10:1 12:1185732 15:1 20:8 21:3 22:10 23:2020
550 0:44 1:0.35 2:70.00000000000001 6:1 10:1 12:1128299 15:1 20:45 21:23 22:12 23:2021
90 0:3 1:0.46 2:50 10:1 12:1128299 15:1 18:1 20:9 21:13 22:10 23:2021
173 0:3 1:0.51 2:51 3:1 10:1 12:1128299 15:1 18:1 20:9 21:12 22:7 23:2021
625 0:11 1:0.35 2:75.00000000000001 10:1 12:1185732 15:1 18:1 20:32 21:3 22:11 23:2021
198 0:3 1:0.44 2:38 3:1 10:1 12:1128299 15:1 19:1 20:9 21:14 22:9 23:2021
150 0:11 1:0.54 2:38 6:1 10:1 12:1185732 15:1 18:1 20:32 21:2 22:5 23:2021
113 0:3 1:0.37 2:36 7:1 10:1 12:1128299 15:1 19:1 20:9 21:13 22:4 23:2021
175 0:11 1:0.51 2:28 7:1 10:1 12:1185732 15:1 18:1 20:32 21:2 22:9 23:2021
350 0:3 1:0.25 2:50 5:1 10:1 12:1128299 15:1 18:1 20:9 21:12 22:3 23:2021
140 0:3 1:0.39 2:51 10:1 12:1128299 15:1 19:1 20:9 21:13 22:8 23:2021
725 0:11 1:0.4 2:55.00000000000001 7:1 10:1 12:1185732 15:1 18:1 20:32 21:2 22:7 23:2021
625 0:10 1:0.35 2:35 3:1 10:1 12:1185732 15:1 18:1 20:39 21:4 22:2 23:2021
925 0:10 1:0.4 2:35 4:1 10:1 12:1185732 15:1 18:1 20:39 21:6 22:1 23:2021
181 0:11 1:0.5 2:49 3:1 10:1 12:1185732 15:1 18:1 20:32 21:2 22:9 23:2021
132 0:3 1:0.43 2:33 6:1 10:1 12:1128299 15:1 19:1 20:9 21:13 22:6 23:2021
202 0:31 1:0.44 2:49 6:1 10:1 12:1185732 15:1 18:1 20:8 21:8 22:10 23:2020
157 0:3 1:0.29 2:46 5:1 10:1 12:1128299 15:1 19:1 20:9 21:13 22:11 23:2021
157 0:3 1:0.29 2:51 5:1 10:1 12:1128299 15:1 19:1 20:9 21:12 22:7 23:2021
173 0:3 1:0.42 2:34 3:1 10:1 12:1128299 15:1 19:1 20:9 21:13 22:10 23:2021
223 0:31 1:0.63 2:55 5:1 10:1 12:1185732 15:1 18:1 20:8 21:28 22:9 23:2020
725 0:3 1:0.4 2:50 4:1 10:1 12:1128299 15:1 18:1 20:9 21:12 22:7 23:2021
88 0:3 1:0.5 2:51 3:1 10:1 12:1128299 15:1 18:1 20:9 21:13 22:4 23:2021
113 0:3 1:0.52 2:53 6:1 10:1 12:1128299 15:1 18:1 20:9 21:13 22:8 23:2021
525 0:3 1:0.4 2:50.00000000000001 3:1 10:1 12:1128299 15:1 18:1 20:9 21:13 22:10 23:2021
124 0:3 1:0.35 2:65 5:1 10:1 12:1128299 15:1 18:1 20:9 21:13 22:11 23:2021
700 0:11 1:0.5 2:54.99999999999999 5:1 10:1 12:1185732 15:1 18:1 20:32 21:2 22:5 23:2021
158 0:3 1:0.38 2:39 7:1 10:1 12:1128299 15:1 19:1 20:9 21:13 22:6 23:2021
74 0:39 1:0.44 2:45 6:1 10:1 12:1128299 15:1 18:1 20:8 21:17 22:2 23:2021
350 0:3 1:0.35 2:65 10:1 12:1128299 15:1 18:1 20:9 21:13 22:11 23:2021
210 0:11 1:0.53 2:54 7:1 10:1 12:1185732 15:1 18:1 20:32 21:3 22:8 23:2021
575 0:11 1:0.4 2:40 6:1 10:1 12:1185732 15:1 18:1 20:32 21:2 22:5 23:2021
123 0:3 1:0.5 2:52 7:1 10:1 12:1128299 15:1 18:1 20:9 21:14 22:5 23:2021
114 0:3 1:0.43 2:34 6:1 10:1 12:1128299 15:1 19:1 20:9 21:14 22:5 23:2021
825 0:11 1:0.5 2:70 5:1 10:1 12:1185732 15:1 18:1 20:32 21:4 22:6 23:2021
500 0:3 1:0.35 2:55.00000000000001 7:1 10:1 12:1128299 15:1 18:1 20:9 21:13 22:8 23:2021
700 0:11 1:0.35 2:35.00000000000001 3:1 10:1 12:1185732 15:1 18:1 20:32 21:4 22:10 23:2021
182 0:11 1:0.46 2:42 3:1 10:1 12:1185732 15:1 18:1 20:32 21:2 22:5 23:2021
72 0:3 1:0.48 2:51 10:1 12:1128299 15:1 18:1 20:9 21:13 22:6 23:2021
875 0:31 1:0.35 2:55.00000000000001 3:1 10:1 12:1185732 15:1 20:8 21:24 22:5 23:2020
156 0:10 1:0.46 2:42 10:1 12:1185732 15:1 18:1 20:39 21:6 22:1 23:2021
203 0:3 1:0.55 2:50 4:1 10:1 12:1128299 15:1 18:1 20:9 21:12 22:12 23:2021
60 0:39 1:0.32 2:52 10:1 12:1128299 15:1 18:1 20:8 21:17 22:2 23:2021
218 0:3 1:0.46 2:37 4:1 10:1 12:1128299 15:1 19:1 20:9 21:12 22:7 23:2021
154 0:44 1:0.51 2:34 3:1 10:1 12:1185732 15:1 18:1 20:45 21:19 22:1 23:2021
625 0:11 1:0.4 2:20 7:1 10:1 12:1185732 15:1 18:1 20:32 21:2 22:3 23:2021
350 0:3 1:0.25 2:70 5:1 10:1 12:1128299 15:1 18:1 20:9 21:13 22:10 23:2021
525 0:3 1:0.4 2:55.00000000000001 3:1 10:1 12:1128299 15:1 18:1 20:9 21:13 22:6 23:2021
215 0:31 1:0.45 2:47 3:1 10:1 12:1185732 15:1 18:1 20:8 21:30 22:9 23:2020
124 0:39 1:0.51 2:33 5:1 10:1 12:1128299 15:1 19:1 20:8 21:17 22:2 23:2021
140 0:11 1:0.54 2:24 6:1 10:1 12:1185732 15:1 18:1 20:32 21:3 22:4 23:2021
63 0:3 1:0.52 2:36 6:1 10:1 12:1128299 15:1 18:1 20:9 21:13 22:2 23:2021
131 0:11 1:0.5 2:42 10:1 12:1185732 15:1 18:1 20:32 21:3 22:4 23:2021
825 0:10 1:0.25 2:60.00000000000001 7:1 10:1 12:1185732 15:1 18:1 20:39 21:5 22:12 23:2021
625 0:11 1:0.5 2:30 5:1 10:1 12:1185732 15:1 18:1 20:32 21:2 22:3 23:2021
169 0:11 1:0.53 2:37 7:1 10:1 12:1185732 15:1 18:1 20:32 21:2 22:5 23:2021
475 0:3 1:0.25 2:70 5:1 10:1 12:1128299 15:1 18:1 20:9 21:12 22:7 23:2021
150 0:11 1:0.5 2:28 6:1 10:1 12:1185732 15:1 18:1 20:32 21:2 22:9 23:2021
375 0:3 1:0.35 2:55.00000000000001 7:1 10:1 12:1128299 15:1 18:1 20:9 21:13 22:4 23:2021
525 0:3 1:0.4 2:45.00000000000001 4:1 10:1 12:1128299 15:1 18:1 20:9 21:13 22:10 23:2021
150 0:3 1:0.42 2:42 7:1 10:1 12:1128299 15:1 19:1 20:9 21:13 22:8 23:2021
575 0:10 1:0.4 2:30 6:1 10:1 12:1185732 15:1 18:1 20:39 21:6 22:1 23:2021
875 0:11 1:0.5 2:70 5:1 10:1 12:1185732 15:1 18:1 20:32 21:2 22:7 23:2021
1075 0:31 1:0.45 2:65 4:1 10:1 12:1185732 15:1 20:8 21:24 22:5 23:2020
175 0:3 1:0.52 2:58 3:1 10:1 12:1128299 15:1 18:1 20:9 21:13 22:8 23:2021
39 0:3 1:0.47 2:51 10:1 12:1128299 15:1 18:1 20:9 21:12 22:3 23:2021
184 0:3 1:0.44 2:40 3:1 10:1 12:1128299 15:1 19:1 20:9 21:13 22:11 23:2021
275 0:3 1:0.4 2:50 6:1 10:1 12:1128299 15:1 18:1 20:9 21:13 22:4 23:2021
325 0:39 1:0.3 2:60 6:1 10:1 12:1128299 15:1 19:1 20:8 21:16 22:3 23:2021
150 0:3 1:0.35 2:67 5:1 10:1 12:1128299 15:1 18:1 20:9 21:13 22:6 23:2021
128 0:3 1:0.29 2:50 5:1 10:1 12:1128299 15:1 19:1 20:9 21:13 22:8 23:2021
224 0:31 1:0.48 2:49 3:1 10:1 12:1185732 15:1 18:1 20:8 21:6 22:10 23:2020
135 0:3 1:0.3 2:46 5:1 10:1 12:1128299 15:1 19:1 20:9 21:14 22:9 23:2021
575 0:3 1:0.4 2:55.00000000000001 3:1 10:1 12:1128299 15:1 18:1 20:9 21:12 22:7 23:2021
700 0:11 1:0.35 2:65 10:1 12:1185732 15:1 18:1 20:32 21:2 22:7 23:2021
925 0:11 1:0.4 2:55.00000000000001 4:1 10:1 12:1185732 15:1 18:1 20:32 21:2 22:9 23:2021
149 0:3 1:0.45 2:42 6:1 10:1 12:1128299 15:1 19:1 20:9 21:13 22:8 23:2021
275 0:3 1:0.35 2:55.00000000000001 10:1 12:1128299 15:1 18:1 20:9 21:13 22:6 23:2021
750 0:31 1:0.25 2:45 7:1 10:1 12:1185732 15:1 20:8 21:25 22:9 23:2020
175 0:3 1:0.35 2:55.00000000000001 10:1 12:1128299 15:1 18:1 20:9 21:13 22:4 23:2021
675 0:3 1:0.4 2:55.00000000000001 4:1 10:1 12:1128299 15:1 18:1 20:9 21:12 22:12 23:2021
275 0:39 1:0.3 2:50 6:1 10:1 12:1128299 15:1 19:1 20:8 21:17 22:2 23:2021
114 0:3 1:0.44 2:32 6:1 10:1 12:1128299 15:1 19:1 20:9 21:13 22:10 23:2021
875 0:11 1:0.4 2:45.00000000000001 4:1 10:1 12:1185732 15:1 18:1 20:32 21:4 22:10 23:2021
550 0:44 1:0.4 2:35 3:1 10:1 12:1185732 15:1 20:45 21:19 22:1 23:2021
163 0:11 1:0.49 2:72 10:1 12:1185732 15:1 18:1 20:32 21:3 22:11 23:2021
595 0:11 1:0.4 2:40.00000000000001 7:1 10:1 12:1185732 15:1 18:1 20:32 21:3 22:11 23:2021
400 0:3 1:0.4 2:45.00000000000001 6:1 10:1 12:1128299 15:1 18:1 20:9 21:14 22:9 23:2021
975 0:31 1:0.45 2:60.00000000000001 4:1 10:1 12:1185732 15:1 20:8 21:5 22:10 23:2020
825 0:31 1:0.25 2:55.00000000000001 7:1 10:1 12:1185732 15:1 20:8 21:24 22:5 23:2020
450 0:3 1:0.35 2:65 10:1 12:1128299 15:1 18:1 20:9 21:13 22:8 23:2021
194 0:10 1:0.45 2:59 6:1 10:1 12:1185732 15:1 18:1 20:39 21:5 22:12 23:2021
189 0:3 1:0.53 2:58 3:1 10:1 12:1128299 15:1 18:1 20:9 21:12 22:12 23:2021
142 0:3 1:0.48 2:52 7:1 10:1 12:1128299 15:1 18:1 20:9 21:13 22:6 23:2021
180 0:11 1:0.5 2:44 10:1 12:1185732 15:1 18:1 20:32 21:4 22:2 23:2021
1025 0:11 1:0.4 2:65 4:1 10:1 12:1185732 15:1 18:1 20:32 21:3 22:8 23:2021
270 0:31 1:0.6 2:56 4:1 10:1 12:1185732 15:1 18:1 20:8 21:29 22:9 23:2020
725 0:31 1:0.35 2:55.00000000000001 10:1 12:1185732 15:1 20:8 21:27 22:9 23:2020
725 0:10 1:0.4 2:25.00000000000001 7:1 10:1 12:1185732 15:1 18:1 20:39 21:6 22:1 23:2021
122 0:44 1:0.52 2:43 10:1 12:1185732 15:1 18:1 20:45 21:19 22:1 23:2021
176 0:3 1:0.53 2:46 4:1 10:1 12:1128299 15:1 18:1 20:9 21:13 22:6 23:2021
173 0:3 1:0.42 2:36 4:1 10:1 12:1128299 15:1 19:1 20:9 21:13 22:11 23:2021
625 0:3 1:0.4 2:60.00000000000001 3:1 10:1 12:1128299 15:1 18:1 20:9 21:13 22:8 23:2021
650 0:11 1:0.4 2:60.00000000000002 6:1 10:1 12:1185732 15:1 18:1 20:32 21:3 22:11 23:2021
224 0:31 1:0.37 2:46 7:1 10:1 12:1185732 15:1 18:1 20:8 21:7 22:10 23:2020
124 0:3 1:0.38 2:39 7:1 10:1 12:1128299 15:1 19:1 20:9 21:12 22:3 23:2021
700 0:11 1:0.5 2:30 5:1 10:1 12:1185732 15:1 18:1 20:32 21:4 22:2 23:2021
550 0:39 1:0.3 2:50 4:1 10:1 12:1128299 15:1 19:1 20:8 21:16 22:3 23:2021
209 0:3 1:0.47 2:42 4:1 10:1 12:1128299 15:1 19:1 20:9 21:12 22:12 23:2021
187 0:44 1:0.47 2:28 3:1 10:1 12:1185732 15:1 19:1 20:45 21:19 22:1 23:2021
69 0:3 1:0.55 2:48 6:1 10:1 12:1128299 15:1 18:1 20:9 21:13 22:4 23:2021
137 0:3 1:0.5 2:37 4:1 10:1 12:1128299 15:1 18:1 20:9 21:12 22:3 23:2021
213 0:31 1:0.6 2:64 5:1 10:1 12:1185732 15:1 18:1 20:8 21:10 22:10 23:2020
149 0:44 1:0.4 2:23 7:1 10:1 12:1185732 15:1 18:1 20:45 21:19 22:1 23:2021
203 0:11 1:0.62 2:51 5:1 10:1 12:1185732 15:1 18:1 20:32 21:2 22:5 23:2021
105 0:3 1:0.47 2:42 7:1 10:1 12:1128299 15:1 18:1 20:9 21:13 22:10 23:2021
400 0:3 1:0.4 2:55.00000000000001 6:1 10:1 12:1128299 15:1 18:1 20:9 21:13 22:11 23:2021
350 0:3 1:0.35 2:45.00000000000001 7:1 10:1 12:1128299 15:1 18:1 20:9 21:13 22:10 23:2021
196 0:11 1:0.46 2:33 3:1 10:1 12:1185732 15:1 18:1 20:32 21:4 22:10 23:2021
153 0:44 1:0.45 2:27 3:1 10:1 12:1185732 15:1 19:1 20:45 21:17 22:2 23:2021
500 0:11 1:0.4 2:24.99999999999999 6:1 10:1 12:1185732 15:1 18:1 20:32 21:3 22:4 23:2021
111 0:3 1:0.42 2:40 3:1 10:1 12:1128299 15:1 19:1 20:9 21:13 22:4 23:2021
228 0:10 1:0.6 2:68 5:1 10:1 12:1185732 15:1 18:1 20:39 21:5 22:12 23:2021
196 0:10 1:0.64 2:34 5:1 10:1 12:1185732 15:1 18:1 20:39 21:6 22:1 23:2021
102 0:3 1:0.4 2:41 10:1 12:1128299 15:1 19:1 20:9 21:13 22:10 23:2021
375 0:3 1:0.35 2:50 7:1 10:1 12:1128299 15:1 18:1 20:9 21:12 22:3 23:2021
108 0:39 1:0.5800000000000001 2:47 5:1 10:1 12:1128299 15:1 18:1 20:8 21:17 22:2 23:2021
203 0:11 1:0.6 2:29 5:1 10:1 12:1185732 15:1 18:1 20:32 21:4 22:2 23:2021
244 0:31 1:0.5800000000000001 2:56 4:1 10:1 12:1185732 15:1 18:1 20:8 21:5 22:10 23:2020
231 0:11 1:0.64 2:54 5:1 10:1 12:1185732 15:1 18:1 20:32 21:3 22:8 23:2021
187 0:3 1:0.46 2:37 4:1 10:1 12:1128299 15:1 19:1 20:9 21:14 22:5 23:2021
73 0:3 1:0.52 2:47 6:1 10:1 12:1128299 15:1 18:1 20:9 21:12 22:3 23:2021
163 0:3 1:0.43 2:30 4:1 10:1 12:1128299 15:1 19:1 20:9 21:12 22:3 23:2021
475 0:44 1:0.4 2:80.00000000000001 10:1 12:1128299 15:1 20:45 21:23 22:12 23:2021
675 0:3 1:0.4 2:50 4:1 10:1 12:1128299 15:1 18:1 20:9 21:13 22:6 23:2021
135 0:3 1:0.37 2:32 7:1 10:1 12:1128299 15:1 19:1 20:9 21:14 22:9 23:2021
254 0:31 1:0.47 2:51 3:1 10:1 12:1185732 15:1 18:1 20:8 21:24 22:5 23:2020
600 0:11 1:0.35 2:49.99999999999999 10:1 12:1185732 15:1 18:1 20:32 21:2 22:5 23:2021
375 0:39 1:0.45 2:60 5:1 10:1 12:1128299 15:1 19:1 20:8 21:16 22:3 23:2021
750 0:44 1:0.5 2:35 4:1 10:1 12:1185732 15:1 20:45 21:19 22:1 23:2021
475 0:11 1:0.4 2:24.99999999999999 6:1 10:1 12:1185732 15:1 18:1 20:32 21:2 22:3 23:2021
193 0:44 1:0.5800000000000001 2:25 5:1 10:1 12:1185732 15:1 19:1 20:45 21:19 22:1 23:2021
113 0:3 1:0.49 2:49 7:1 10:1 12:1128299 15:1 18:1 20:9 21:12 22:3 23:2021
102 0:3 1:0.39 2:64 5:1 10:1 12:1128299 15:1 18:1 20:9 21:13 22:10 23:2021
181 0:11 1:0.52 2:19 7:1 10:1 12:1185732 15:1 18:1 20:32 21:2 22:3 23:2021
308 0:11 1:0.53 2:61 4:1 10:1 12:1185732 15:1 18:1 20:32 21:3 22:8 23:2021
350 0:3 1:0.25 2:70 5:1 10:1 12:1128299 15:1 18:1 20:9 21:13 22:4 23:2021
147 0:3 1:0.51 2:54 3:1 10:1 12:1128299 15:1 18:1 20:9 21:13 22:6 23:2021
113 0:3 1:0.44 2:37 3:1 10:1 12:1128299 15:1 19:1 20:9 21:12 22:3 23:2021
120 0:3 1:0.46 2:35 6:1 10:1 12:1128299 15:1 19:1 20:9 21:14 22:9 23:2021
225 0:10 1:0.45 2:66 10:1 12:1185732 15:1 18:1 20:39 21:5 22:12 23:2021
128 0:3 1:0.45 2:39 6:1 10:1 12:1128299 15:1 19:1 20:9 21:12 22:7 23:2021
78 0:3 1:0.45 2:38 6:1 10:1 12:1128299 15:1 19:1 20:9 21:12 22:3 23:2021
124 0:11 1:0.54 2:25 6:1 10:1 12:1185732 15:1 18:1 20:32 21:2 22:3 23:2021
119 0:3 1:0.35 2:68 5:1 10:1 12:1128299 15:1 18:1 20:9 21:13 22:8 23:2021
650 0:11 1:0.35 2:45 3:1 10:1 12:1185732 15:1 18:1 20:32 21:2 22:5 23:2021
215 0:11 1:0.55 2:44 4:1 10:1 12:1185732 15:1 18:1 20:32 21:3 22:11 23:2021
94 0:3 1:0.39 2:42 10:1 12:1128299 15:1 19:1 20:9 21:13 22:6 23:2021
101 0:39 1:0.6 2:54 5:1 10:1 12:1128299 15:1 18:1 20:8 21:16 22:3 23:2021
124 0:3 1:0.31 2:53 5:1 10:1 12:1128299 15:1 19:1 20:9 21:14 22:5 23:2021
